Mg8 Sc16 Se32 from Materials Project
  1.00000000000000
   11.1003847944368736    0.0000000000000000    0.0000000000000000
    0.0000000000000000   11.1003847944368736    0.0000000000000000
   -0.0000000000000000   -0.0000000000000000   11.1003847944368736
  Mg   Sc   Se
    8    16    32
Direct
 0.2500000000000000  0.2500000000000000  0.2500000000000000
 0.5000000000000000  0.0000000000000000  0.5000000000000000
 0.2500000000000000  0.7500000000000000  0.7500000000000000
 0.5000000000000000  0.5000000000000000  0.0000000000000000
 0.7500000000000000  0.2500000000000000  0.7500000000000000
 0.0000000000000000  0.0000000000000000  0.0000000000000000
 0.7500000000000000  0.7500000000000000  0.2500000000000000
 0.0000000000000000  0.5000000000000000  0.5000000000000000
 0.1250000000000000  0.8750000000000000  0.3750000000000000
 0.3750000000000000  0.1250000000000000  0.8750000000000000
 0.3750000000000000  0.3750000000000000  0.6250000000000000
 0.1250000000000000  0.1250000000000000  0.6250000000000000
 0.1250000000000000  0.3750000000000000  0.8750000000000000
 0.3750000000000000  0.6250000000000000  0.3750000000000000
 0.3750000000000000  0.8750000000000000  0.1250000000000000
 0.1250000000000000  0.6250000000000000  0.1250000000000000
 0.6250000000000000  0.8750000000000000  0.8750000000000000
 0.8750000000000000  0.1250000000000000  0.3750000000000000
 0.8750000000000000  0.3750000000000000  0.1250000000000000
 0.6250000000000000  0.1250000000000000  0.1250000000000000
 0.6250000000000000  0.3750000000000000  0.3750000000000000
 0.8750000000000000  0.6250000000000000  0.8750000000000000
 0.8750000000000000  0.8750000000000000  0.6250000000000000
 0.6250000000000000  0.6250000000000000  0.6250000000000000
 0.3828774720031120  0.1171225279968881  0.1171225279968881
 0.6171225279968879  0.3828774720031120  0.6171225279968879
 0.6171225279968879  0.1171225279968881  0.8828774720031121
 0.3828774720031120  0.3828774720031120  0.3828774720031120
 0.3671225279968880  0.1328774720031119  0.6328774720031121
 0.1328774720031119  0.8671225279968879  0.1328774720031119
 0.1328774720031119  0.1328774720031119  0.8671225279968879
 0.3671225279968880  0.8671225279968879  0.3671225279968880
 0.3828774720031120  0.6171225279968879  0.6171225279968879
 0.6171225279968879  0.8828774720031121  0.1171225279968881
 0.6171225279968879  0.6171225279968879  0.3828774720031120
 0.3828774720031120  0.8828774720031121  0.8828774720031121
 0.3671225279968880  0.6328774720031121  0.1328774720031119
 0.1328774720031119  0.3671225279968880  0.6328774720031121
 0.1328774720031119  0.6328774720031121  0.3671225279968880
 0.3671225279968880  0.3671225279968880  0.8671225279968879
 0.8828774720031121  0.1171225279968881  0.6171225279968879
 0.1171225279968881  0.3828774720031120  0.1171225279968881
 0.1171225279968881  0.1171225279968881  0.3828774720031120
 0.8828774720031121  0.3828774720031120  0.8828774720031121
 0.8671225279968879  0.1328774720031119  0.1328774720031119
 0.6328774720031121  0.8671225279968879  0.6328774720031121
 0.6328774720031121  0.1328774720031119  0.3671225279968880
 0.8671225279968879  0.8671225279968879  0.8671225279968879
 0.8828774720031121  0.6171225279968879  0.1171225279968881
 0.1171225279968881  0.8828774720031121  0.6171225279968879
 0.1171225279968881  0.6171225279968879  0.8828774720031121
 0.8828774720031121  0.8828774720031121  0.3828774720031120
 0.8671225279968879  0.6328774720031121  0.6328774720031121
 0.6328774720031121  0.3671225279968880  0.1328774720031119
 0.6328774720031121  0.6328774720031121  0.8671225279968879
 0.8671225279968879  0.3671225279968880  0.3671225279968880
