Mg7 Sc16 Se32
1.0
  11.1003847944368736    0.0000000000000000    0.0000000000000000
   0.0000000000000000   11.1003847944368736    0.0000000000000000
  -0.0000000000000000   -0.0000000000000000   11.1003847944368736
Mg Sc Se
7 16 32
direct
   0.5041739023906653    0.0013360833337926    0.5062490408680886 Mg
   0.2495745012891267    0.7438297749416732    0.7391319127242640 Mg
   0.3929450826757291    0.3772663831321183    0.1027493435978450 Mg
   0.7496451583650390    0.2499013894404753    0.7491455585525837 Mg
   0.0000083247565351    0.9994458552564525    0.0008548949489311 Mg
   0.7474296474091637    0.7411541343454799    0.2490695010174961 Mg
   0.9952369007640945    0.5056246508453982    0.4932479824289172 Mg
   0.1219461008350019    0.8682099891070325    0.3689566114931329 Sc
   0.3709111253717842    0.1129304652301513    0.8765912083985167 Sc
   0.3686261634611497    0.3775767658620278    0.6151542904932250 Sc
   0.1146695553993456    0.1266741666293496    0.6197550583028649 Sc
   0.1206159213595470    0.3864835851195852    0.8724912432336591 Sc
   0.3785272894657463    0.6199262610477883    0.3793507158075205 Sc
   0.3772002436472870    0.8800218702792674    0.1307029536359377 Sc
   0.1248478381932225    0.6270535242602282    0.1280902147187958 Sc
   0.6238479620886000    0.8769984546939454    0.8752037892230443 Sc
   0.8752343499239742    0.1261690632164116    0.3731438606704027 Sc
   0.8779852082587611    0.3759017210378049    0.1149961343132070 Sc
   0.6258092156684881    0.1253558223760710    0.1225723962068289 Sc
   0.6247602374404599    0.3736057862737927    0.3743880548537119 Sc
   0.8865254977552117    0.6264213890402097    0.8772372486417580 Sc
   0.8762684134773769    0.8667602430969916    0.6216607177884468 Sc
   0.6362388142451368    0.6203488211633212    0.6233429331247757 Sc
   0.3839185690113546    0.1132289925010759    0.1140589565783066 Se
   0.6269005282922161    0.3829481842868181    0.6101232854081435 Se
   0.6131357655088640    0.1218693677702187    0.8844380461177455 Se
   0.3699024548486061    0.3863810441834715    0.3852800305504818 Se
   0.3693677583674546    0.1302312350805004    0.6325343588642509 Se
   0.1328798943302517    0.8669641142837470    0.1328774404369236 Se
   0.1333322961644842    0.1342567084584853    0.8621066730143058 Se
   0.3656440497217454    0.8632670586150998    0.3674195231012260 Se
   0.3721197240337159    0.6250068933022483    0.6188270748340517 Se
   0.6181868363091124    0.8877588849100314    0.1289601379259963 Se
   0.6170627170199995    0.6171383667721440    0.3828724383900870 Se
   0.3881403244924947    0.8775765338372977    0.8778662742897323 Se
   0.3630059381161365    0.6344436484354101    0.1416129570059411 Se
   0.1326632165719390    0.3751296189989898    0.6325873507733369 Se
   0.1330241063011080    0.6331935665484101    0.3670237876174200 Se
   0.3641292197062539    0.3727274579994053    0.8585064233805054 Se
   0.8835826815196938    0.1178516094704622    0.6169263770020004 Se
   0.1158545823901149    0.3905384736864033    0.1135976079275372 Se
   0.1285715671887921    0.1164575292289800    0.3774066530811905 Se
   0.8844629569030018    0.3813964612996043    0.8821392065929534 Se
   0.8638217664399325    0.1233291246764836    0.1292095031386484 Se
   0.6308386329211149    0.8578341837785718    0.6312521380761769 Se
   0.6377135437346405    0.1305452865970060    0.3681853573704520 Se
   0.8710378432290655    0.8627535370484984    0.8681012737609051 Se
   0.8891618083566561    0.6192202284583569    0.1079100208808366 Se
   0.1263359640418592    0.8815137600118316    0.6220936540126946 Se
   0.1148516806921157    0.6155169532450664    0.8821615066622830 Se
   0.8878289574518313    0.8754015979269829    0.3918585945148291 Se
   0.8612099304843095    0.6292300721446594    0.6426434604163523 Se
   0.6302803261530130    0.3673366241104341    0.1342950737151901 Se
   0.6281471523459701    0.6244864869771344    0.8767682695027612 Se
   0.8655946598562384    0.3707217369104126    0.3635767125534676 Se
