Mg7 Sc16 Se32
1.0
  11.1003847944368736    0.0000000000000000    0.0000000000000000
   0.0000000000000000   11.1003847944368736    0.0000000000000000
  -0.0000000000000000   -0.0000000000000000   11.1003847944368736
Mg Sc Se
7 16 32
direct
   0.4984165615709690    0.0060477531507824    0.5024728659470026 Mg
   0.2436637505452715    0.7423246424307195    0.7560582280662328 Mg
   0.5004156258373149    0.5001194633597174    0.9988407188924213 Mg
   0.7506806398622887    0.2408404921057301    0.7481722089712282 Mg
   0.0008081958752705    0.9998127906755878    0.9974555974172314 Mg
   0.7447546511397510    0.7448405754007144    0.2618281166186309 Mg
   0.1526328442354851    0.2864691683614405    0.2315742456283397 Mg
   0.1350968777667015    0.8694553116038903    0.3726555708715436 Sc
   0.3749432109950135    0.1250201702478543    0.8751266578750005 Sc
   0.3746105952902545    0.3785779281419991    0.6218305420662766 Sc
   0.1262063191698201    0.1269239775058564    0.6243827877792704 Sc
   0.1198376803923995    0.3814548488491026    0.8864340236195800 Sc
   0.3728165312715136    0.6203805063700322    0.3795445796071106 Sc
   0.3719513501081081    0.8751457068295472    0.1247749243164959 Sc
   0.1330570252622000    0.6241393023972461    0.1197910777355469 Sc
   0.6257617629397930    0.8716646833926079    0.8710437321009450 Sc
   0.8737421864168965    0.1260494627463679    0.3775296506424965 Sc
   0.8725682735998165    0.3692754280158535    0.1221286746915508 Sc
   0.6235517906049889    0.1352408351363462    0.1263497080177870 Sc
   0.6263364844899325    0.3766995348985941    0.3742553978313803 Sc
   0.8738765651191648    0.6256019923594212    0.8825773220514040 Sc
   0.8673725917059195    0.8759617616455323    0.6228161873829833 Sc
   0.6285225723190375    0.6256628074315633    0.6148434851804669 Sc
   0.3822445239007227    0.1085341870174945    0.1160442623132111 Se
   0.6292985531737284    0.3807365813699509    0.6146831505188944 Se
   0.6142528197076115    0.1137427142219321    0.8805560902051455 Se
   0.3827605515596079    0.3861217443807452    0.3849637590508099 Se
   0.3652720032770489    0.1301484859208915    0.6280584260460970 Se
   0.1357026940330514    0.8761573056994696    0.1389395065080804 Se
   0.1304162197741138    0.1322288328851721    0.8779047561819663 Se
   0.3681809403511510    0.8674050825892619    0.3665260975310241 Se
   0.3830202786537436    0.6200857047648463    0.6130667237496171 Se
   0.6166247094219077    0.8825473952810592    0.1175734290988383 Se
   0.6284580641223808    0.6185186257434226    0.3771152511037089 Se
   0.3833985450258940    0.8820500199852481    0.8821699912657572 Se
   0.3611832824484867    0.6362138081056499    0.1351021829431589 Se
   0.1354458158198743    0.3591149897448721    0.6400171353217338 Se
   0.1241294929861382    0.6350323158267746    0.3606026313073913 Se
   0.3626540625900866    0.3732308026775225    0.8601872979923078 Se
   0.8847520768968821    0.1149999504812619    0.6167397288485985 Se
   0.1115746459247596    0.3754211701857918    0.1161994762074098 Se
   0.1239480810163346    0.1135818228026085    0.3922087204377369 Se
   0.8823840053826933    0.3824450231497256    0.8836740937630178 Se
   0.8615772471440287    0.1371755153799855    0.1308947651570341 Se
   0.6342480346830439    0.8725383328228672    0.6430863732373335 Se
   0.6364382572956255    0.1363101306625266    0.3656384095980008 Se
   0.8702393310836486    0.8596515925498416    0.8686319808027884 Se
   0.8823409665508960    0.6183936659016493    0.1243175414608776 Se
   0.1145238183981343    0.8784844491732218    0.6108752647218432 Se
   0.1250580605526667    0.6132165701664078    0.8887753523496239 Se
   0.8831550815468405    0.8861014013662232    0.3866923872973880 Se
   0.8532003023346633    0.6314724884869238    0.6317329695139379 Se
   0.6351822062730861    0.3666512989765169    0.1312445028571214 Se
   0.6362233117923339    0.6384390029832758    0.8626721205670024 Se
   0.8666060999231205    0.3682921232560250    0.3670157519707129 Se
