Mg7 Sc16 Se32
1.0
  11.1003847944368736    0.0000000000000000    0.0000000000000000
   0.0000000000000000   11.1003847944368736    0.0000000000000000
  -0.0000000000000000   -0.0000000000000000   11.1003847944368736
Mg Sc Se
7 16 32
direct
   0.4951007107094689    0.0093923808851238    0.5041278538096119 Mg
   0.2394282581965556    0.7518714787951162    0.7568450329539107 Mg
   0.4955056267597908    0.5059810455324615    0.0030163730357865 Mg
   0.7400705578173845    0.2438312328056332    0.7437486754745350 Mg
   0.0045512121720752    0.9962838451355944    0.0099588513392892 Mg
   0.7516290861692939    0.7515619629272671    0.2501160138898819 Mg
   0.2066339716136366    0.2889527883751192    0.2826337071355037 Mg
   0.1142931961419619    0.8681032330981394    0.3763594506462797 Sc
   0.3750554982736271    0.1250698162599231    0.8749495024770726 Sc
   0.3869277623196630    0.3673434279686028    0.6185325919241258 Sc
   0.1211510364910698    0.1380848607814795    0.6320421489082274 Sc
   0.1313637006570222    0.3846617512744753    0.8711110523446915 Sc
   0.3737519750752455    0.6219784048138403    0.3731471533178132 Sc
   0.3771116103614294    0.8800380898589125    0.1258180231352876 Sc
   0.1294963307839298    0.6257609043017861    0.1338961094406490 Sc
   0.6386739568289485    0.8713368296106162    0.8782973745336969 Sc
   0.8726551055911634    0.1235980619622540    0.3875231618634858 Sc
   0.8799941623796455    0.3872080728753702    0.1165509893711484 Sc
   0.6255636968640765    0.1279733520860161    0.1299272000322295 Sc
   0.6268114784171639    0.3758353966117265    0.3773206209375386 Sc
   0.8842401497642249    0.6355339306189273    0.8688332534482588 Sc
   0.8679501644947694    0.8773270723297839    0.6227431906133911 Sc
   0.6204872878849900    0.6127916290909790    0.6143762010989711 Sc
   0.3800734495313297    0.1242680834502656    0.1174485690851374 Se
   0.6208351595642341    0.3846441838486871    0.6132755806322817 Se
   0.6244871451928009    0.1224631499949421    0.8929861607681290 Se
   0.3734359147437067    0.3814204513099499    0.3713658738804051 Se
   0.3549591919921762    0.1251390864749461    0.6327404931936437 Se
   0.1278415905030637    0.8709957281475087    0.1291439806261410 Se
   0.1348083794654561    0.1346915478610145    0.8640612738959702 Se
   0.3703821077411954    0.8697317513086684    0.3584176129673523 Se
   0.3822192452422529    0.6181564211480598    0.6201258711790704 Se
   0.6145743638940362    0.8873526737580658    0.1175765537812453 Se
   0.6101490027628035    0.6176598000704026    0.3850577672649790 Se
   0.3811177965903145    0.8829554001688671    0.8849059361805767 Se
   0.3718691454420129    0.6350653302991117    0.1243398072336120 Se
   0.1361917985424357    0.3526746072449146    0.6318885490646807 Se
   0.1326902573884320    0.6310822691088019    0.3664386644657386 Se
   0.3771874587268941    0.3722379603959268    0.8627648124866771 Se
   0.8839181510243994    0.1323565271611686    0.6251840678022926 Se
   0.1142839439315344    0.3921287682734493    0.1187008198237621 Se
   0.1171451469914107    0.1073053207187513    0.3751610748948302 Se
   0.8774907695892057    0.3976937158626621    0.8843470311353596 Se
   0.8734822180470484    0.1315169861662668    0.1339100041873268 Se
   0.6337473052519270    0.8727506347406583    0.6311550035865069 Se
   0.6337390924186211    0.1328947909386429    0.3657749337283692 Se
   0.8708960917213966    0.8725950385161130    0.8821846985265324 Se
   0.8836001090019143    0.6238151773194361    0.1135380376457934 Se
   0.1162863937278230    0.8758557748278404    0.6090101572657555 Se
   0.1194444418162403    0.6145709156167798    0.8891244529189873 Se
   0.8788231924759468    0.8749495272112756    0.3707274999840592 Se
   0.8709143290632416    0.6182277096326189    0.6397409471323889 Se
   0.6394386002696140    0.3671807516091084    0.1211500522600980 Se
   0.6391669247301582    0.6227869907801299    0.8664697884760282 Se
   0.8732684401212150    0.3695870396236048    0.3609519391128762 Se
