Mg7 Sc16 Se32
1.0
  11.1003847944368736    0.0000000000000000    0.0000000000000000
   0.0000000000000000   11.1003847944368736    0.0000000000000000
  -0.0000000000000000   -0.0000000000000000   11.1003847944368736
Mg Sc Se
7 16 32
direct
   0.1738383570514248    0.2772165384480765    0.2307115811600577 Mg
   0.2516740989066020    0.7506448899500311    0.7515006842962626 Mg
   0.4990558839753099    0.4973137860998275    0.9974957066023219 Mg
   0.7500941094984378    0.2500423787834395    0.7501916993713391 Mg
   0.0012083001525902    0.9950964066595719    0.0016367910219948 Mg
   0.7537513942171281    0.7519811639812601    0.2477556136809845 Mg
   0.9970430125726700    0.4966329406719335    0.4925412138989465 Mg
   0.1198823091637224    0.8810207644532480    0.3826151445251292 Sc
   0.3743718806806929    0.1228102616118870    0.8720923755412608 Sc
   0.3741729931737428    0.3749897848410202    0.6240721297307098 Sc
   0.1165829215087230    0.1204119586883219    0.6255739023701747 Sc
   0.1250334259691236    0.3749749351261409    0.8750428800054800 Sc
   0.3719787302872665    0.6225816532308956    0.3702160624493491 Sc
   0.3838972702380175    0.8781442694791509    0.1188640582551568 Sc
   0.1228601832485245    0.6246392518183107    0.1236282666590916 Sc
   0.6270777677241026    0.8860256322647940    0.8687939438067320 Sc
   0.8776185993440798    0.1218438055503298    0.3626138148628803 Sc
   0.8826994054537287    0.3833315966623281    0.1270660345745843 Sc
   0.6302408093198901    0.1239961291973674    0.1121374596119041 Sc
   0.6246444953353623    0.3752506545696749    0.3753736270582279 Sc
   0.8736727438629694    0.6206509413651679    0.8794628426661939 Sc
   0.8802595098851443    0.8693546968287621    0.6286396998860576 Sc
   0.6212159809940591    0.6242705936726788    0.6195742108379951 Sc
   0.3809542013371260    0.1239716148515988    0.1221001698810174 Se
   0.6246562503199427    0.3776685362974627    0.6163168378381431 Se
   0.6056617583010501    0.1196431983729075    0.8855747667854900 Se
   0.3765226765010659    0.3826748998968895    0.3822450530865560 Se
   0.3653280190514140    0.1328856341586891    0.6219566443966074 Se
   0.1379168906433218    0.8755697108066721    0.1280386514019800 Se
   0.1272890845427018    0.1307037873384479    0.8704650442626781 Se
   0.3752393766782905    0.8738113043431972    0.3624816804491941 Se
   0.3831992952961564    0.6175181871975248    0.6182164939454284 Se
   0.6179589857449010    0.8784955843358122    0.1174934511561045 Se
   0.6274246668443008    0.6135279536600541    0.3838611886095092 Se
   0.3782899760982464    0.8743702899262560    0.8804198793328453 Se
   0.3642695291230159    0.6438520288354818    0.1377974290811934 Se
   0.1354099816987747    0.3568203811504557    0.6380561935245866 Se
   0.1331741864256780    0.6327255716965768    0.3669011344151645 Se
   0.3685881256256821    0.3685808082909038    0.8655300311629116 Se
   0.8838121396103614    0.1154019660075738    0.6124819552329144 Se
   0.1160040522643919    0.3855918058327926    0.1214807479339917 Se
   0.1212989187556239    0.1217900499801088    0.3740465138401241 Se
   0.8837137820419710    0.3789272428437730    0.8801510073007461 Se
   0.8704977234587713    0.1309657263894423    0.1331440498551223 Se
   0.6231901328860100    0.8694971702702672    0.6272922336458662 Se
   0.6388131424552956    0.1219068694724477    0.3610724653066781 Se
   0.8740534601365033    0.8712732951740854    0.8600324550259753 Se
   0.8780330087883198    0.6146909911199895    0.1119221585848860 Se
   0.1175985946297134    0.8828827026904625    0.6161202800294452 Se
   0.1175900736084425    0.6146128396507776    0.8789382221708733 Se
   0.8839201541330063    0.8788027387328243    0.3773664009163349 Se
   0.8730815764360527    0.6406866378180320    0.6323868796235639 Se
   0.6307479044836162    0.3655622790896929    0.1323218359353903 Se
   0.6293468760263352    0.6281506015377913    0.8622550747103814 Se
   0.8676936470384645    0.3690082637427869    0.3685107501500574 Se
