Mg7 Sc16 Se32
1.0
  11.1003847944368736    0.0000000000000000    0.0000000000000000
   0.0000000000000000   11.1003847944368736    0.0000000000000000
  -0.0000000000000000   -0.0000000000000000   11.1003847944368736
Mg Sc Se
7 16 32
direct
   0.4994907426614592    0.9972506473541903    0.4823077960376711 Mg
   0.1864286943425494    0.1872608415620739    0.1566798010277836 Mg
   0.4969229740224367    0.4959672111403962    0.9955734955036800 Mg
   0.7596093295697224    0.2349126625139996    0.7412354706264656 Mg
   0.0198322060310586    0.9998112345465716    0.9969651336976869 Mg
   0.7420027403147751    0.7442480768926287    0.2496277990403212 Mg
   0.9965382154616531    0.4978754733228843    0.5057663189701582 Mg
   0.1112422547818354    0.8927116762944604    0.3795504475687460 Sc
   0.3826050532283609    0.1246848357369636    0.8863215550028152 Sc
   0.3752015407800783    0.3752620938655683    0.6251338856461774 Sc
   0.1284298960092732    0.1316601367580181    0.6327954816048128 Sc
   0.1072911412350364    0.3648995557204929    0.8651117332315589 Sc
   0.3727781062495479    0.6358394850363777    0.3593977800311798 Sc
   0.3801879924300250    0.8775581227071548    0.1291694352688755 Sc
   0.1091748065864220    0.6382359156217881    0.1220297455175543 Sc
   0.6399586636610736    0.8758281922639850    0.8693974568736423 Sc
   0.8783586145170706    0.1216284833748310    0.3695299680227037 Sc
   0.8822448238915436    0.3815786900387878    0.1228248999178046 Sc
   0.6331966395590135    0.1169691930975573    0.1099635768331290 Sc
   0.6021360738937681    0.3766681831388480    0.3727968693038686 Sc
   0.8754154170548325    0.6254720082847939    0.8728072223805072 Sc
   0.8621697354648479    0.8726417069296947    0.6189217277459739 Sc
   0.6264154805102067    0.6424155472244246    0.6164987825795879 Sc
   0.3705259080758095    0.1183199895415458    0.1088289364128074 Se
   0.6183161584453163    0.3832807083546745    0.6147094231658197 Se
   0.6204070737641697    0.1221757004043662    0.8987969153749993 Se
   0.4022810663447380    0.3728708648715948    0.3743418946366172 Se
   0.3697926290113147    0.1495960063134034    0.6458681560955923 Se
   0.1407155389288031    0.8567798237854409    0.1192628733883814 Se
   0.1326468388320069    0.1359735044864930    0.8510906587775334 Se
   0.3681183761504365    0.8692354944259723    0.3713929748488715 Se
   0.3790793500063670    0.6063108099217704    0.6182737389228993 Se
   0.6114031583212962    0.8844003225295960    0.1206242127489381 Se
   0.6196314780427878    0.6273384452012374    0.3882866930257320 Se
   0.3944108342942436    0.8899205099993606    0.8859679589389220 Se
   0.3675193447028441    0.6333726660468829    0.1422770064125604 Se
   0.1456883128585617    0.3630896892672165    0.6351696346975984 Se
   0.1492099658716183    0.6377385673164506    0.3713873311815049 Se
   0.3643398951073130    0.3655436789200281    0.8665376368471751 Se
   0.8788121125710985    0.1088406653228883    0.6212493313847605 Se
   0.1216640875488859    0.3781792553307273    0.1151584021123998 Se
   0.1260324177690110    0.1240178150343741    0.3848351076866352 Se
   0.8637062569820763    0.3795647429897185    0.8912094799370217 Se
   0.8626354320448303    0.1311460048987439    0.1241949234664513 Se
   0.6270750687996615    0.8556290605119119    0.6289079891131852 Se
   0.6381672457206174    0.1294900870386693    0.3722434497489929 Se
   0.8679408518459644    0.8703242497317287    0.8654429063414875 Se
   0.8891542907485400    0.6169001866015329    0.1110329807375437 Se
   0.1212458132553191    0.8731339094714561    0.6172292240712346 Se
   0.1191423381474385    0.6204435121992107    0.8795498884805926 Se
   0.8885060512834340    0.8870908407635285    0.3742075176087432 Se
   0.8672776977218087    0.6324378573336886    0.6351114815633092 Se
   0.6345567101456974    0.3661359130035928    0.1303994181395605 Se
   0.6430960840939083    0.6343159181877515    0.8568663381827750 Se
   0.8672435708626903    0.3670344433167351    0.3669395454750333 Se
