Mg7 Sc16 Se32
1.0
  11.1003847944368736    0.0000000000000000    0.0000000000000000
   0.0000000000000000   11.1003847944368736    0.0000000000000000
  -0.0000000000000000   -0.0000000000000000   11.1003847944368736
Mg Sc Se
7 16 32
direct
   0.5003858038012423    0.0034600093702949    0.4938480646690258 Mg
   0.2469105266659916    0.7551739530901924    0.7557504972380522 Mg
   0.5086506950480204    0.5013413595343651    0.0043286789571959 Mg
   0.7425882594754700    0.2499739139222081    0.7565110564532063 Mg
   0.0618657642974994    0.0656933419148394    0.0851179048837808 Mg
   0.7554035767812721    0.7517564405336317    0.2430782013898005 Mg
   0.9967001124680236    0.5000977655524104    0.4945425880823647 Mg
   0.1287568457939852    0.8765859677029513    0.3760512087794081 Sc
   0.3743606195155782    0.1315803684396590    0.8741444663389698 Sc
   0.3832692463960375    0.3689778408100539    0.6260322777244898 Sc
   0.1308906489133694    0.1291353359822175    0.6314911557601579 Sc
   0.1226770354348611    0.3736328800776257    0.8777835032876069 Sc
   0.3751225128907813    0.6253828665453557    0.3749775954365855 Sc
   0.3701160443691758    0.8752868592564550    0.1288312225383615 Sc
   0.1313084958309336    0.6198817121920983    0.1322722349260638 Sc
   0.6278913824844125    0.8759498105130235    0.8755409352749836 Sc
   0.8797340839887063    0.1281149883299816    0.3712047912528840 Sc
   0.8673293618240835    0.3810823018720944    0.1278040534229763 Sc
   0.6313803381593633    0.1297817303307087    0.1295407108173939 Sc
   0.6254154158074635    0.3742329594765942    0.3791876698334667 Sc
   0.8753160173706070    0.6263158154389747    0.8759868942564619 Sc
   0.8768529869603509    0.8687431997601036    0.6301590742762334 Sc
   0.6154401044418656    0.6295293873980771    0.6275504674077869 Sc
   0.3819732447814789    0.1233083945449270    0.1084576967484222 Se
   0.6241047668769341    0.3877342345776613    0.6157022900004023 Se
   0.6090164105713055    0.1208582076230424    0.8841259691387962 Se
   0.3786520333574520    0.3870651782100409    0.3778713502226612 Se
   0.3687718307548803    0.1337252972385154    0.6294238610784644 Se
   0.1362405884849628    0.8679234135909404    0.1363141748853091 Se
   0.1295259401956201    0.1344958211690824    0.8734773448275285 Se
   0.3673535484626904    0.8700491788043120    0.3682538232241264 Se
   0.3852932693613644    0.6178337597401115    0.6080103097568978 Se
   0.6210339450181593    0.8803546303860197    0.1204506797429510 Se
   0.6147620695538715    0.6191985028615388    0.3818867754364756 Se
   0.3835693401960787    0.8815069551839962    0.8837853488220346 Se
   0.3676286255148765    0.6324342020527366    0.1325525476083696 Se
   0.1306039828366591    0.3702890051041863    0.6339529951046950 Se
   0.1375372777010205    0.6339128315550983    0.3641454520149761 Se
   0.3619760062991139    0.3754195317061877    0.8656597385378091 Se
   0.8833659036063629    0.1165813826256590    0.6141637623355291 Se
   0.1146612405601061    0.3808152719942502    0.1196730856265758 Se
   0.1155617988418540    0.1176438029796913    0.3836186727497547 Se
   0.8829905681433178    0.3825901216007034    0.8914533818050369 Se
   0.8673537269074135    0.1405504735081745    0.1328849145267518 Se
   0.6326949625347957    0.8678504357222210    0.6337809788818795 Se
   0.6300930891439157    0.1265961813462273    0.3680831255322782 Se
   0.8701563630248841    0.8689437858534410    0.8680650718728826 Se
   0.8799881276885358    0.6184139913059353    0.1162315623341186 Se
   0.1219748597343460    0.8828095849438480    0.6176214728261000 Se
   0.1191052662698848    0.6164472139695867    0.8840491544397420 Se
   0.8837968406034674    0.8785475364526146    0.3811818869677974 Se
   0.8604073742268443    0.6344787986701472    0.6278949922630583 Se
   0.6333818532927702    0.3627879388893049    0.1350236650501441 Se
   0.6315879793099798    0.6292881987304513    0.8656695408170281 Se
   0.8649820302187228    0.3660631910843023    0.3657027680393771 Se
