Mg7 Sc16 Se32
1.0
  11.1003847944368736    0.0000000000000000    0.0000000000000000
   0.0000000000000000   11.1003847944368736    0.0000000000000000
  -0.0000000000000000   -0.0000000000000000   11.1003847944368736
Mg Sc Se
7 16 32
direct
   0.4934327078007099    0.9985792915716666    0.5013120415532691 Mg
   0.1888643757698064    0.3184992924844514    0.2569433303998161 Mg
   0.4955022943213162    0.5015920587161974    0.0069091539917583 Mg
   0.7502623700186378    0.2529752444041864    0.7501229179774115 Mg
   0.9957175209090559    0.9964652478443931    0.9949626701091288 Mg
   0.7486143194557642    0.7475464203864908    0.2442427186223222 Mg
   0.0037121563773623    0.5002561256293707    0.4906025411261612 Mg
   0.1237673571625718    0.8802404485025355    0.3755456503544693 Sc
   0.3736548775904880    0.1160681310821752    0.8849975713389068 Sc
   0.3668648197607158    0.3705363303514789    0.6322312935556230 Sc
   0.1228124516670541    0.1248774414007807    0.6241368805255025 Sc
   0.1250615061242313    0.3748284306248754    0.8749541287915225 Sc
   0.3715793509779615    0.6219627510049347    0.3778494727205375 Sc
   0.3760557197883419    0.8662420340080588    0.1219859634187939 Sc
   0.1337535341012872    0.6248039311486782    0.1242636217128546 Sc
   0.6301680627759275    0.8752384316208294    0.8761334745954718 Sc
   0.8771004068582682    0.1252063437912280    0.3769746571793438 Sc
   0.8751217162029604    0.3746589052213487    0.1253036679736123 Sc
   0.6258212639861555    0.1216470775042798    0.1239367073869887 Sc
   0.6292652621938083    0.3738405057388267    0.3698548980016196 Sc
   0.8755129534073243    0.6243319336566781    0.8725491996219193 Sc
   0.8756473835510142    0.8753621388509985    0.6158962134291894 Sc
   0.6206447243135785    0.6199957686279370    0.6215113463609585 Sc
   0.3809198994186644    0.1131692780570641    0.1264694211695560 Se
   0.6200309819896508    0.3897879406506378    0.6072798797518271 Se
   0.6158371856656308    0.1173889149407658    0.8775835616499019 Se
   0.3829995768631811    0.3832512231834336    0.3827136440171202 Se
   0.3645652791694637    0.1326152202513628    0.6388994840667241 Se
   0.1318641489703947    0.8683148078547022    0.1325721943213949 Se
   0.1321857659057548    0.1285835702367174    0.8643803576805350 Se
   0.3612021653942820    0.8676128126992653    0.3756434991105476 Se
   0.3840320582245721    0.6213426545149854    0.6129650011917521 Se
   0.6130021651684565    0.8749118342212175    0.1219517154905569 Se
   0.6131114775407022    0.6248121556713072    0.3781234562873813 Se
   0.3865424114298943    0.8847974982600557    0.8801408152902057 Se
   0.3661794848715971    0.6335230459422172    0.1334122585537480 Se
   0.1342360161610813    0.3671832122462622    0.6314678066889704 Se
   0.1368236088060384    0.6418904363463614    0.3576184145687616 Se
   0.3654799516665604    0.3782849466799995    0.8673619401306433 Se
   0.8885287291680188    0.1218007836987652    0.6056732298393931 Se
   0.1209918016861807    0.3813861951606467    0.1074648077787046 Se
   0.1211790687450669    0.1275383884161800    0.3824110370003499 Se
   0.8829764037668260    0.3822921570561156    0.8825099365408844 Se
   0.8753024775439331    0.1354211036882662    0.1414797777400085 Se
   0.6296240409133401    0.8737904933942615    0.6285851611927635 Se
   0.6313393904534884    0.1331826778052928    0.3609667512478443 Se
   0.8752371986711708    0.8667026733908401    0.8647761636571460 Se
   0.8870669152688246    0.6148098376617938    0.1212030443944974 Se
   0.1286355195238857    0.8885305681704779    0.6207429930365571 Se
   0.1287734523460068    0.6161638285621854    0.8897365190259720 Se
   0.8907194118356331    0.8814299880740020    0.3884304754359013 Se
   0.8709082383986341    0.6344626429242906    0.6306903581335102 Se
   0.6313402388813011    0.3696578980708607    0.1347690658649205 Se
   0.6321446889131764    0.6369485513114251    0.8636156653022697 Se
   0.8591858736327388    0.3752658456893187    0.3620470963409513 Se
