Mg7 Sc16 Se32
1.0
  11.1003847944368736    0.0000000000000000    0.0000000000000000
   0.0000000000000000   11.1003847944368736    0.0000000000000000
  -0.0000000000000000   -0.0000000000000000   11.1003847944368736
Mg Sc Se
7 16 32
direct
   0.5079528220863436    0.0060183849463028    0.4986700064365851 Mg
   0.1982169600311730    0.3122900281967479    0.2559727410575549 Mg
   0.5015232879085010    0.5004671499964811    0.9998771097684022 Mg
   0.7467175828640013    0.2499217302594592    0.7487856993325736 Mg
   0.9987361945999415    0.9902429727606116    0.0045153183560764 Mg
   0.7611808529453227    0.7359550822663323    0.2487831131213424 Mg
   0.9878340269493513    0.5092162462691674    0.5202156414516074 Mg
   0.1334580131604416    0.8844237273709985    0.3523086047694668 Sc
   0.3674578819202802    0.1232223884584495    0.8953237891838564 Sc
   0.3762139726907386    0.3765453355825490    0.6225253070868697 Sc
   0.1220459037580872    0.1243905773181474    0.6235540516412481 Sc
   0.1432560340420032    0.3687051520869679    0.8919267739266283 Sc
   0.3741220040588270    0.6130791866781761    0.3706816933446023 Sc
   0.3703433978352718    0.8586120260800042    0.1339625389815500 Sc
   0.1156780431670782    0.6404752324045142    0.1417154346699615 Sc
   0.6218515035091574    0.8713147788074496    0.8793089255870249 Sc
   0.8819029685450277    0.1147767774807117    0.3639702690537594 Sc
   0.8725885208678970    0.3713714880201193    0.1258253618382971 Sc
   0.6253340655578383    0.1201892926259727    0.1246920882020084 Sc
   0.6246697272735388    0.3754482972485428    0.3769945600698084 Sc
   0.8778470868165948    0.6132279956517136    0.8787319115055144 Sc
   0.8798020674367595    0.8755459681372838    0.6218588603294321 Sc
   0.6267322733097357    0.6257466704981463    0.6248428304848238 Sc
   0.3828669603323561    0.1171221345349386    0.1171675333428542 Se
   0.6170086766277419    0.3797306494572518    0.6148310474480875 Se
   0.6245879366676736    0.1404649174175983    0.8741017975047628 Se
   0.3702020557491607    0.3811417055817225    0.3761461343581808 Se
   0.3670449749913088    0.1462865856860411    0.6213533806559679 Se
   0.1160389621752209    0.8620570300139433    0.1290685355277753 Se
   0.1297973736573490    0.1297680997705286    0.8611962631951435 Se
   0.3669830579400234    0.8533196768396660    0.3736358425881657 Se
   0.3846237593157022    0.6132900115890713    0.6276183549866208 Se
   0.6174246457191861    0.8851582482623195    0.1134871568360731 Se
   0.6338310466822554    0.5973362660721793    0.3775478112559764 Se
   0.3836084095532443    0.8837217732304656    0.8841185336833042 Se
   0.3791969099049268    0.6465197433364409    0.1506138124287454 Se
   0.1306973865505551    0.3638231266053881    0.6342000256559180 Se
   0.1396528712734420    0.6309528116855004    0.3737426305371742 Se
   0.3680608954961015    0.3521848314412542    0.8687549990341344 Se
   0.8961860157111683    0.1137345789020855    0.6252175192537422 Se
   0.1289514055401892    0.3841059498779259    0.1071701173456137 Se
   0.1133776412522110    0.1237715759140668    0.3637245585756805 Se
   0.8959314476142893    0.3819945090171811    0.8662884989115969 Se
   0.8671428125785258    0.1399119185648725    0.1367378671224470 Se
   0.6385686049551448    0.8662624906094779    0.6311913291877012 Se
   0.6436421118697110    0.1484103265452186    0.3558823318774569 Se
   0.8730424666335637    0.8756284228690318    0.8590509265602901 Se
   0.8846826476831968    0.6113250948627150    0.1222239463535856 Se
   0.1141127627478633    0.8873976365064570    0.6233827698693788 Se
   0.1126256304182654    0.6271681825236561    0.8747025130506131 Se
   0.8921423336076399    0.8878607884532758    0.3741525934937361 Se
   0.8687800867679968    0.6336413511884884    0.6338529323636634 Se
   0.6324158276258713    0.3675152738030281    0.1348169378024850 Se
   0.6446224825698301    0.6235047483651051    0.8784754856831818 Se
   0.8687345062291197    0.3552509462520447    0.3716128842569283 Se
