Mg7 Sc16 Se32
1.0
  11.1003847944368736    0.0000000000000000    0.0000000000000000
   0.0000000000000000   11.1003847944368736    0.0000000000000000
  -0.0000000000000000   -0.0000000000000000   11.1003847944368736
Mg Sc Se
7 16 32
direct
   0.4999705913299031    0.0000839932785924    0.4997823796539482 Mg
   0.2220684789286166    0.2105437406714474    0.1826680744966103 Mg
   0.4993892474308932    0.5008850317085745    0.9997468622730434 Mg
   0.7501668609057742    0.2477313257214208    0.7487310252659777 Mg
   0.9973208529395897    0.0014322999438676    0.9983686545839957 Mg
   0.7471276842509781    0.7485563874430270    0.2472650117170918 Mg
   0.0007179418341309    0.5004221822905173    0.5027502961664312 Mg
   0.1248355366385374    0.8749552036576003    0.3743136407143873 Sc
   0.3724521907053899    0.1225016577355270    0.8730498091038087 Sc
   0.3763576417003109    0.3739225468453728    0.6271587310821161 Sc
   0.1252038105841148    0.1265803365057861    0.6247131239099065 Sc
   0.1251888798124493    0.3748226988107556    0.8751896301522087 Sc
   0.3776997674596659    0.6254546298052727    0.3735676328919231 Sc
   0.3781922774415431    0.8730821577616622    0.1257110624067342 Sc
   0.1269985528123341    0.6239722084105116    0.1246975745650027 Sc
   0.6263159930466208    0.8712216029978248    0.8748978238386488 Sc
   0.8730898703917648    0.1235471581369193    0.3719636748873423 Sc
   0.8753958599582176    0.3749997360770608    0.1265559806248420 Sc
   0.6281286287859602    0.1266898559859388    0.1238324088975800 Sc
   0.6232075988416498    0.3766574882662925    0.3733012700495612 Sc
   0.8761884363301158    0.6233833765647001    0.8771069674876361 Sc
   0.8749565259651574    0.8744769017251245    0.6241252089833520 Sc
   0.6250773800966538    0.6244276463057359    0.6224129891154069 Sc
   0.3827832019518085    0.1170033996429971    0.1168992145499217 Se
   0.6158428458151803    0.3809884983117485    0.6148864462399547 Se
   0.6156468523353217    0.1182127068921997    0.8814895097229606 Se
   0.3823258466655826    0.3828990451864735    0.3799187872367066 Se
   0.3673975050353719    0.1327635318552825    0.6328423880070818 Se
   0.1359525936878883    0.8674210960038283    0.1319341613029450 Se
   0.1343236754519946    0.1333162395303768    0.8661527286069169 Se
   0.3673436683828945    0.8650062899071548    0.3662588813502078 Se
   0.3834039928425135    0.6201065732296737    0.6172688831258106 Se
   0.6158606294424873    0.8820644145729125    0.1191505055355847 Se
   0.6177962765799240    0.6192636805287722    0.3810388717748633 Se
   0.3847719125806576    0.8822017070801451    0.8832287066650880 Se
   0.3657146785583112    0.6318950238559411    0.1292523265026689 Se
   0.1331034729999027    0.3667458997153799    0.6327489607735465 Se
   0.1296766408317647    0.6316967904467565    0.3664044236526958 Se
   0.3669164750841060    0.3700695977830291    0.8689552506140809 Se
   0.8824372908547514    0.1155858099259868    0.6162822322913089 Se
   0.1160918857744346    0.3847476470657370    0.1170728142784739 Se
   0.1178849750975301    0.1186818072378188    0.3845719640410027 Se
   0.8847904496399047    0.3864770342984629    0.8822732575703069 Se
   0.8671979110582505    0.1329928985380110    0.1329421607299613 Se
   0.6343659613467550    0.8661931747213810    0.6350182117323140 Se
   0.6324019421466118    0.1331593972716222    0.3675103098743887 Se
   0.8644103119514530    0.8649237134948907    0.8672965015690447 Se
   0.8807245913257098    0.6149370288952011    0.1196700400432833 Se
   0.1172965614534039    0.8831539448770965    0.6156112726504083 Se
   0.1188360232699881    0.6160401636156612    0.8844087844117239 Se
   0.8824813181095034    0.8820949259883594    0.3804852404104891 Se
   0.8662584184734443    0.6326185485950327    0.6323275487816635 Se
   0.6331305194823035    0.3676654297047354    0.1332408251854946 Se
   0.6353008192146947    0.6336253787311613    0.8649834913525818 Se
   0.8692803548270968    0.3675175406869943    0.3678103000030445 Se
