Mg7 Sc16 Se32
1.0
  11.1003847944368736    0.0000000000000000    0.0000000000000000
   0.0000000000000000   11.1003847944368736    0.0000000000000000
  -0.0000000000000000   -0.0000000000000000   11.1003847944368736
Mg Sc Se
7 16 32
direct
   0.5025458249556950    0.9969885998538217    0.4980344712320545 Mg
   0.2499108727749803    0.7484471731260021    0.7511277054455052 Mg
   0.3600560925758368    0.4079193132623989    0.0758208219638316 Mg
   0.7504164812222897    0.2506201998692743    0.7496250004591838 Mg
   0.9983049552951296    0.9989299879955527    0.0001758336425842 Mg
   0.7499622864587580    0.7498867311489157    0.2495070567923694 Mg
   0.9990385684856750    0.4992467902086714    0.5011221362241745 Mg
   0.1249686581054196    0.8751090309281477    0.3750468663892876 Sc
   0.3753560737173925    0.1271543282385623    0.8781245211837763 Sc
   0.3762586084343861    0.3767820542830499    0.6262827358617625 Sc
   0.1269824805380390    0.1253628482085421    0.6257574800500123 Sc
   0.1266091832534088    0.3737989984121411    0.8730316007312861 Sc
   0.3748039254021135    0.6223482394519378    0.3746788726095526 Sc
   0.3756937865163051    0.8756538462190432    0.1250191714192813 Sc
   0.1229509527118342    0.6253223684951401    0.1234355336608322 Sc
   0.6244944466708761    0.8754620796348473    0.8736892126143642 Sc
   0.8755785822761118    0.1257378073515284    0.3767196303724100 Sc
   0.8745380601890129    0.3732253414204076    0.1220010114399437 Sc
   0.6240744217446205    0.1282423369185424    0.1269089452182187 Sc
   0.6237720910865640    0.3749360944637165    0.3724951867408340 Sc
   0.8741159611502909    0.6240289434796235    0.8753123250222109 Sc
   0.8750189822762441    0.8749490291229047    0.6247427232823269 Sc
   0.6263464861801699    0.6222400589206025    0.6248936892232591 Sc
   0.3839226079373854    0.1176611564225349    0.1174946702973507 Se
   0.6168793943883784    0.3817504650405277    0.6189027048145286 Se
   0.6214653338465704    0.1178412226108768    0.8838272648621485 Se
   0.3850699557542038    0.3826000032173915    0.3831254977092329 Se
   0.3656534289616335    0.1366273349515597    0.6344995388542429 Se
   0.1346956501943421    0.8642978635450410    0.1335335761515100 Se
   0.1305577164107500    0.1359410245455852    0.8685965228086946 Se
   0.3667822436705481    0.8681079600271281    0.3687562524888965 Se
   0.3811664768495669    0.6143709575346890    0.6150439996898943 Se
   0.6195089322665129    0.8836511847888544    0.1170771818739385 Se
   0.6135299498176666    0.6160683394856753    0.3820348203144756 Se
   0.3826117019980671    0.8822392898462313    0.8846630703237141 Se
   0.3700084022332026    0.6326925859854583    0.1356562698075133 Se
   0.1317301008030071    0.3649019169766045    0.6347390068735167 Se
   0.1319159435577038    0.6328076261704573    0.3675587646272009 Se
   0.3655836136599344    0.3686216262259259    0.8640812793926791 Se
   0.8817040677456128    0.1144320136155388    0.6168014000206049 Se
   0.1172834778128907    0.3818460276540846    0.1157008727083653 Se
   0.1168953580452494    0.1168413607734773    0.3832230809444191 Se
   0.8824718646457825    0.3822958145626264    0.8841026394287339 Se
   0.8662047164838117    0.1350477083995224    0.1341005201759990 Se
   0.6314766297588442    0.8699530309838204    0.6312259747910318 Se
   0.6328088315179228    0.1336829608574438    0.3672596991781533 Se
   0.8693889576146181    0.8651536415162865    0.8675992162710598 Se
   0.8828533593673823    0.6169297458177800    0.1173959085243092 Se
   0.1155132578752137    0.8830920080706096    0.6169695831952876 Se
   0.1185956422026697    0.6162851305421297    0.8811263605482569 Se
   0.8833226790040397    0.8829073733642382    0.3829813972648371 Se
   0.8670990121934652    0.6326971427458367    0.6328151702272568 Se
   0.6317725981785210    0.3690069494330709    0.1336055476016531 Se
   0.6310251716334061    0.6335673698784741    0.8686366639835209 Se
   0.8672601427441686    0.3673355705087289    0.3672264400977641 Se
