Mg7 Sc16 Se32
1.0
  11.1003847944368736    0.0000000000000000    0.0000000000000000
   0.0000000000000000   11.1003847944368736    0.0000000000000000
  -0.0000000000000000   -0.0000000000000000   11.1003847944368736
Mg Sc Se
7 16 32
direct
   0.3735031111005804    0.1046185942337593    0.3913669113793968 Mg
   0.2528772736814565    0.7524311359214774    0.7482227409681119 Mg
   0.5022084313553155    0.4965426443700061    0.0004801466965989 Mg
   0.7541152909136403    0.2297490412132637    0.7535378708104954 Mg
   0.9938163035422365    0.0112035768550771    0.9919088352496183 Mg
   0.7500142942924075    0.7500517150461649    0.2499323359999742 Mg
   0.9908502781580303    0.5077578512342179    0.4945131077667280 Mg
   0.1277314159381639    0.8764577296860506    0.3581938024771395 Sc
   0.3751935952131384    0.1244622703354100    0.8749810414500581 Sc
   0.3722368667570395    0.3766397359541201    0.6246881069758246 Sc
   0.1196886248988981    0.1119478921270047    0.6244825940566130 Sc
   0.1251899448421787    0.3750176305167630    0.8751036002808592 Sc
   0.3911962348568334    0.6375909836658777    0.3778923764046954 Sc
   0.3833176595508184    0.8679184942750727    0.1336233735752445 Sc
   0.1266830945020686    0.6271990726817784    0.1244645277991453 Sc
   0.6263383024125473    0.8890364022417595    0.8642469991516670 Sc
   0.8799407419968047    0.1289211179846438    0.3697446990414031 Sc
   0.8937834569274372    0.3787252325474083    0.1173474447001032 Sc
   0.6246885494176159    0.1235224476975592    0.1328940470028682 Sc
   0.6257484324397192    0.3740476013402877    0.3746596491214738 Sc
   0.8763963003768297    0.6260223856431923    0.8739572544520852 Sc
   0.8814551461184431    0.8849761738436357    0.6341165753357879 Sc
   0.6084203716086859    0.6351016617946331    0.6189346004579491 Sc
   0.3878039920326610    0.1252235091725967    0.1193799150067743 Se
   0.6170375101963065    0.3829158502067680    0.6171111574224881 Se
   0.6088043109498992    0.1056743871760619    0.8877918602128910 Se
   0.3810772628866655    0.3957930036896658    0.3973144840190190 Se
   0.3559538326324581    0.1473066632534877    0.6297649330101023 Se
   0.1305950134001277    0.8515321413469336    0.1262125693094362 Se
   0.1291803178862490    0.1268144715396511    0.8726443256612187 Se
   0.3611469716598850    0.8568578812004922    0.3502494352898477 Se
   0.3827055073099609    0.6076020394243266    0.6038892853872718 Se
   0.6167653330378882    0.8790647175057880    0.1335854470299219 Se
   0.6224960717924949    0.6301906681468989    0.3866867798493275 Se
   0.3834214262133626    0.8836245150123782    0.8822970478263961 Se
   0.3738322389928448    0.6357734595577420    0.1310231405224807 Se
   0.1456872117958628    0.3562872132067804    0.6370449896128507 Se
   0.1269306063814113    0.6360345594427913    0.3723379572355526 Se
   0.3607869664311751    0.3740176521069174    0.8588711106350889 Se
   0.8624098974408348    0.1056311695112209    0.6159247154697989 Se
   0.1164643161688298    0.3830935723871510    0.1173970248909122 Se
   0.1175097288471481    0.1167536274439986    0.3842432948952238 Se
   0.8804110024724162    0.3816287328849099    0.8858133789842927 Se
   0.8671100121517488    0.1332941044507666    0.1329767903159783 Se
   0.6325787509696801    0.8676262365479721    0.6332461254544265 Se
   0.6220902430501101    0.1244792753698961    0.3795940683706638 Se
   0.8560652396150609    0.8873701951883703    0.8729910879814063 Se
   0.8842656764269741    0.6229752221687737    0.1200172220098133 Se
   0.1174001845806284    0.8831540695539053    0.6146291989619901 Se
   0.1212011919804809    0.6113867692633853    0.9019526324569653 Se
   0.8919238209779354    0.8762335810942602    0.3819200618767167 Se
   0.8722981208228875    0.6301577921245817    0.6379800342219498 Se
   0.6379157987065981    0.3574918421050471    0.1407724699514617 Se
   0.6189601015346533    0.6288646039852851    0.8602236820933042 Se
   0.8567412421629338    0.3585085649091356    0.3668436202300626 Se
