Mg7 Sc16 Se32
1.0
  11.1003847944368736    0.0000000000000000    0.0000000000000000
   0.0000000000000000   11.1003847944368736    0.0000000000000000
  -0.0000000000000000   -0.0000000000000000   11.1003847944368736
Mg Sc Se
7 16 32
direct
   0.1528343177195869    0.2887548450740313    0.2243949439819149 Mg
   0.2557751669182284    0.7629086362540989    0.7520306388077576 Mg
   0.4917531212377996    0.4805167002181240    0.9954902639064597 Mg
   0.7539393948975768    0.2415288005941015    0.7444495363327708 Mg
   0.9885574037641994    0.9934747082794688    0.9875251600836182 Mg
   0.7607046840501844    0.7372743642780660    0.2574132605444061 Mg
   0.9981074478692379    0.5067539722746807    0.4983062355432785 Mg
   0.1181639234402638    0.8598917660447807    0.3919552595310544 Sc
   0.3859711774173972    0.1295616752791947    0.8791765146299981 Sc
   0.3736804090412209    0.3749813608478528    0.6242272224718263 Sc
   0.1279812942821985    0.1271788414430575    0.6282715513553823 Sc
   0.1200691726232517    0.3759435478100935    0.8851490237846413 Sc
   0.3820476067067927    0.6262963719693312    0.3685043005308895 Sc
   0.3774745703398579    0.8783265776540387    0.1275628796039406 Sc
   0.1393498469941195    0.6177722465093918    0.1342353612647871 Sc
   0.6046237291522089    0.8765914953873069    0.8683975562830342 Sc
   0.8764184689212827    0.1315439692956754    0.3681664249019729 Sc
   0.8700087300260838    0.3718512522408865    0.1296464638780220 Sc
   0.6302782093758864    0.1271207904788793    0.1232736304106066 Sc
   0.6203366749045602    0.3711215403478784    0.3773731422923827 Sc
   0.8710107895267700    0.6252701016672013    0.8745033214765232 Sc
   0.8804927024140150    0.8715713496662765    0.6092964258487049 Sc
   0.6246298088250334    0.6245477612648160    0.6251894380495855 Sc
   0.3916848711997644    0.1374226188417346    0.1149012314424561 Se
   0.6227098946712107    0.3868904039923903    0.6175630799600533 Se
   0.6127535951280221    0.1099227258267586    0.8753683828496688 Se
   0.3814581657477986    0.3741103602709239    0.3827120229550382 Se
   0.3882456077467682    0.1383157733596470    0.6253211856647252 Se
   0.1143532407228864    0.8660202099249645    0.1217827284994457 Se
   0.1383819855283866    0.1250546431524210    0.8645695082984355 Se
   0.3665919148947347    0.8729393584366276    0.3707860728942481 Se
   0.3921556604470804    0.6261372562746966    0.6109629511465178 Se
   0.6170751317940448    0.8829770508489003    0.1173003344599950 Se
   0.6151307663185540    0.6253435537775849    0.3814225067426069 Se
   0.3720651124843501    0.8907090570302039    0.8786125328500527 Se
   0.3668447207035294    0.6326133184036036    0.1335571141714450 Se
   0.1324445304479607    0.3676142958060488    0.6345998859266460 Se
   0.1414599155800388    0.6257731370941243    0.3463025773763395 Se
   0.3713478806677155    0.3684406390753872    0.8664455261056619 Se
   0.8820532925055816    0.1192593617244468    0.6155868215976537 Se
   0.0995309996761818    0.3824964505850511    0.1123594325096094 Se
   0.1130748021613356    0.0985164262796564    0.3890190787918004 Se
   0.8779740166116161    0.3736211050658249    0.8797146770383305 Se
   0.8625278383995322    0.1383758992723522    0.1547160071827427 Se
   0.6269629721229441    0.8743759953982727    0.6294731641423384 Se
   0.6372704806132209    0.1380137323527196    0.3727254547531697 Se
   0.8672071701223234    0.8636264729918879    0.8626223566789539 Se
   0.8797730450447138    0.6258070646381458    0.1231147898652412 Se
   0.0993549707749305    0.8836854703162675    0.6223573482177723 Se
   0.1020084521255621    0.6191890864137021    0.8854938200953713 Se
   0.8819987913329698    0.8822502009604442    0.3831876782394533 Se
   0.8691562540007398    0.6309986632546614    0.6312080113959516 Se
   0.6281501258119435    0.3628384587540051    0.1397367247420696 Se
   0.6193643354777997    0.6198158303483078    0.8732713467064013 Se
   0.8604534890060745    0.3651379571804813    0.3607538625780798 Se
