Mg7 Sc16 Se32
1.0
  11.1003847944368736    0.0000000000000000    0.0000000000000000
   0.0000000000000000   11.1003847944368736    0.0000000000000000
  -0.0000000000000000   -0.0000000000000000   11.1003847944368736
Mg Sc Se
7 16 32
direct
   0.4985492730116323    0.9957050261203257    0.5049187339517033 Mg
   0.2255644559550909    0.2163273575625260    0.1903822865062911 Mg
   0.4992540022780185    0.4978649970835078    0.0064499642216239 Mg
   0.7475374930745853    0.2490556592237453    0.7465663143463281 Mg
   0.0013782597989495    0.9977920726693942    0.0018538093508970 Mg
   0.7512938259175038    0.7483218141751009    0.2482992943707172 Mg
   0.9939803595150596    0.5078864699835703    0.5015753803762207 Mg
   0.1275916235525160    0.8729437354657426    0.3666822105204186 Sc
   0.3656248829817142    0.1204268241044490    0.8701258374255489 Sc
   0.3870369123710706    0.3797575206477153    0.6276590380223396 Sc
   0.1266380772020985    0.1194607813484866    0.6251212496298943 Sc
   0.1230751454321466    0.3754543115365331    0.8829872714411678 Sc
   0.3736457241197666    0.6325429762967828    0.3710517044260660 Sc
   0.3780512434143413    0.8733201704702573    0.1265296801579067 Sc
   0.1144459936774472    0.6242824116770251    0.1189522464502261 Sc
   0.6228169695244689    0.8789100675835190    0.8647698264159787 Sc
   0.8766534141410904    0.1339251755994790    0.3812609376596699 Sc
   0.8783021836878011    0.3803245872518964    0.1239361737407588 Sc
   0.6267844508256045    0.1262212764145189    0.1255812094506851 Sc
   0.6186081813111638    0.3802445980392175    0.3700704355218727 Sc
   0.8679201036135955    0.6279797754513763    0.8783104599745697 Sc
   0.8659391169392154    0.8670070886457526    0.6276726908984782 Sc
   0.6283017377033450    0.6250729523886326    0.6262008490367126 Sc
   0.3864148105485872    0.1191124062533019    0.1140798075409219 Se
   0.6189666510150086    0.3854415700922319    0.6142943118995461 Se
   0.6166919442786430    0.1212494329755855    0.8824451936365322 Se
   0.3917400891071853    0.3895318626423285    0.3870339545265428 Se
   0.3660846436263142    0.1283644460844391    0.6338674257364374 Se
   0.1327507728894228    0.8663675141782113    0.1375579791396638 Se
   0.1292237663220926    0.1299380918482657    0.8649631883740725 Se
   0.3678636588902190    0.8668233470746046    0.3668040426553592 Se
   0.3791751106204808    0.6195286860188729    0.6205097673127139 Se
   0.6149081629019636    0.8782906373322558    0.1191862353113397 Se
   0.6204529126453998    0.6237013448900420    0.3809371696785316 Se
   0.3886933349749766    0.8773185515950102    0.8936968641000923 Se
   0.3673765297442496    0.6330950524762342    0.1326440992712695 Se
   0.1321192854257215    0.3682857216381901    0.6334589057181378 Se
   0.1340695639255021    0.6325026613221345    0.3661726257294554 Se
   0.3660743685326303    0.3689680768439396    0.8673166173427160 Se
   0.8822664601707424    0.1169398844403254    0.6160598362237216 Se
   0.1169552990456827    0.3732032983393573    0.1129336027623199 Se
   0.1176321402995908    0.1200589882666700    0.3831468112720781 Se
   0.8827596755837787    0.3757954656525964    0.8766990450471950 Se
   0.8608867493507315    0.1382965747068642    0.1262363860277918 Se
   0.6379697467335853    0.8672784940636855    0.6350709711905829 Se
   0.6303565596622689    0.1210211131981494    0.3632318483120988 Se
   0.8651373168592666    0.8590632679817742    0.8623001114360384 Se
   0.8813803470808347    0.6166943772735776    0.1116811861652655 Se
   0.1157054231718656    0.8869918230887524    0.6069847300809990 Se
   0.1222040092725638    0.6129440035326539    0.8759080031951471 Se
   0.8868041695132491    0.8786432113210578    0.3914794414175520 Se
   0.8654498792674371    0.6353290833760656    0.6311702452423602 Se
   0.6328600064915710    0.3672515086503119    0.1329574455255599 Se
   0.6299956032535802    0.6362147203520014    0.8674690242152373 Se
   0.8680397283943815    0.3577259341646610    0.3719742514006910 Se
