Mg7 Sc16 Se32
1.0
  11.1003847944368736    0.0000000000000000    0.0000000000000000
   0.0000000000000000   11.1003847944368736    0.0000000000000000
  -0.0000000000000000   -0.0000000000000000   11.1003847944368736
Mg Sc Se
7 16 32
direct
   0.5008031025252744    0.9935081059912588    0.4928305013040427 Mg
   0.1841738916582808    0.4264085865600568    0.3708521324127844 Mg
   0.4979621613591688    0.5000769814572843    0.9969833229851738 Mg
   0.7499640744188028    0.2651053637530361    0.7582760480537254 Mg
   0.9986969490137965    0.0053356947505407    0.9992000565328987 Mg
   0.7494573649857856    0.7549010072468401    0.2403600989029402 Mg
   0.9997948904039634    0.4959260691102284    0.5022643685319347 Mg
   0.1237901236533491    0.8752073369859230    0.3752903176321564 Sc
   0.3605971156990494    0.1209013137322213    0.8694734389863179 Sc
   0.3734790776488813    0.3808095345069180    0.6361255610639509 Sc
   0.1186141736274316    0.1290323440342072    0.6306592513612187 Sc
   0.1251792283517081    0.3747468648202457    0.8754344834150590 Sc
   0.3762333527743340    0.6266862582739516    0.3724661238887466 Sc
   0.3714217290071523    0.8850198303472854    0.1277930644378954 Sc
   0.1294394796626173    0.6226151299557755    0.1410406330742678 Sc
   0.6240995374179106    0.8776318800150514    0.8746339286111591 Sc
   0.8708180754390780    0.1264235528905926    0.3885354335625807 Sc
   0.8744718139247131    0.3749155181475108    0.1252060997145648 Sc
   0.6245914823243399    0.1153841753802519    0.1235141958274266 Sc
   0.6271972948798938    0.3669719974515563    0.3753581443724762 Sc
   0.8739286131810527    0.6170839527704515    0.8828617934086286 Sc
   0.8687779820131639    0.8713896789559881    0.6320672031093227 Sc
   0.6251086362489179    0.6253195116812084    0.6248292558811503 Sc
   0.3851437639800763    0.1191160188925569    0.1102690139721817 Se
   0.6164577706115909    0.3812494071719417    0.6234995997844998 Se
   0.6202348404339330    0.1180487807648052    0.8856041084221793 Se
   0.3827305743865910    0.3830175425697920    0.3830861718234817 Se
   0.3661648976355846    0.1273944315890093    0.6418172116033496 Se
   0.1284026355463977    0.8734505648782218    0.1396939761966141 Se
   0.1186322985868090    0.1324105016963139    0.8619985116884810 Se
   0.3608713410690608    0.8552011541392515    0.3575506964559683 Se
   0.3819552040788133    0.6114565519577730    0.6087074805614361 Se
   0.6193608457107539    0.8834035045813755    0.1158021011284145 Se
   0.6187925191438655    0.6158702130793055    0.3870617938313485 Se
   0.3858514344590308    0.8806665124442495    0.8775876544395600 Se
   0.3565916133102582    0.6290159965079232    0.1291202855273091 Se
   0.1319275944171004    0.3670795677381246    0.6337039172974994 Se
   0.1328790251303413    0.6327960101166168    0.3669736656985444 Se
   0.3672943285456701    0.3675363223992692    0.8659163266872563 Se
   0.8910319099858628    0.1217263296884268    0.6169601562936378 Se
   0.1169823759952226    0.3823452443999127    0.1173057151099314 Se
   0.1170178166176352    0.1171792409577766    0.3831383760887618 Se
   0.8800807115060918    0.3810404224479825    0.8764528649460359 Se
   0.8613561101799144    0.1336422962548162    0.1327722385959644 Se
   0.6339982656485552    0.8598047061761155    0.6323323019078962 Se
   0.6242227564745109    0.1300976341346528    0.3586337461277421 Se
   0.8582121454828967    0.8669042183162441    0.8779490029424140 Se
   0.8835456498294207    0.6236038351194374    0.1179318526184759 Se
   0.1206978150192117    0.8855032833197755    0.6036291436945421 Se
   0.1217059771405378    0.6157721366811152    0.8835824655174875 Se
   0.8817277569572045    0.8856159732607201    0.3929860980140147 Se
   0.8668978971448756    0.6472554348955863    0.6321108223576586 Se
   0.6231528395662025    0.3618488152423840    0.1390449767151692 Se
   0.6284350913270904    0.6311590508709423    0.8784564915969226 Se
   0.8673053472596656    0.3835373119155972    0.3708131352800305 Se
