Mg7 Sc16 Se32
1.0
  11.1003847944368736    0.0000000000000000    0.0000000000000000
   0.0000000000000000   11.1003847944368736    0.0000000000000000
  -0.0000000000000000   -0.0000000000000000   11.1003847944368736
Mg Sc Se
7 16 32
direct
   0.5022878097598672    0.0029737047485471    0.5024745804448173 Mg
   0.1931833974962468    0.2409211353217242    0.1844110950923247 Mg
   0.5017484176451140    0.4950002458866156    0.9975164950431682 Mg
   0.7466253165127443    0.2642307494248399    0.7565021297826217 Mg
   0.0023052223288360    0.0145579343731568    0.0023036988731153 Mg
   0.7467162239988254    0.7488066337252144    0.2509130290357999 Mg
   0.9893608447312868    0.5076624238030326    0.4984378798629304 Mg
   0.1262017125654259    0.8761452995103666    0.3831563025271794 Sc
   0.3727639338030228    0.1264029141900450    0.8744904733523329 Sc
   0.3705669012704511    0.3775885423638913    0.6310024302831945 Sc
   0.1261083601472976    0.1342337566961407    0.6340533298680776 Sc
   0.1244841197992987    0.3891067503107106    0.8843727971836065 Sc
   0.3762664686670978    0.6299957274237936    0.3731641994535523 Sc
   0.3621102173335397    0.8807978532804999    0.1223609036434515 Sc
   0.1257622346644591    0.6239104305335688    0.1266848839753967 Sc
   0.6199779840341211    0.8839097565834010    0.8692187772337372 Sc
   0.8713174410105901    0.1303997477689376    0.3722647521163215 Sc
   0.8724160201510565    0.3846190664396143    0.1182527458741293 Sc
   0.6251305600021103    0.1125896715740422    0.1323926752568842 Sc
   0.6184527960355839    0.3849173600272370    0.3666539212959951 Sc
   0.8794471784324227    0.6247369172937307    0.8746894788512006 Sc
   0.8720462515472928    0.8755577473373628    0.6209571587240537 Sc
   0.6257747195598903    0.6254643223818830    0.6256446529384266 Sc
   0.3832246375603710    0.1171287501316619    0.1191253302130488 Se
   0.6157490286463942    0.3843480938323098    0.6145639855121812 Se
   0.6072654256061314    0.1302348463920535    0.8832918377845322 Se
   0.3865890606169057    0.3846361240772286    0.3916220034694362 Se
   0.3743949813840813    0.1323571986221092    0.6214944242230758 Se
   0.1390889183934257    0.8643153960596942    0.1309097296808544 Se
   0.1340553614299218    0.1223103694765245    0.8661566613763584 Se
   0.3694741778628148    0.8727938208125844    0.3663335963402006 Se
   0.3843861448897971    0.6135334444275440    0.6254456435878580 Se
   0.6175665424445274    0.8833059301118308    0.1181623545384791 Se
   0.6156026496906060    0.6177157552047703    0.3882722329840613 Se
   0.3883775847674527    0.8780290164577874    0.8920613030119360 Se
   0.3767261969114118    0.6328299465547550    0.1287077910347556 Se
   0.1331138308422787    0.3771278433238949    0.6362939675592877 Se
   0.1260969425934163    0.6270364965442596    0.3711176314751584 Se
   0.3783193676163933    0.3709715728158585    0.8762503689010207 Se
   0.8879716863698766    0.1129882235621198    0.6184344644361905 Se
   0.1065411061348985    0.3933084072473891    0.1167138381127136 Se
   0.1131160690342336    0.1153211169021904    0.3922486176669070 Se
   0.8862953456568502    0.3863234027472531    0.8755858846846398 Se
   0.8693893512458866    0.1238812334971889    0.1381575041887799 Se
   0.6287012274318835    0.8712083383109502    0.6449131837282893 Se
   0.6311633874602610    0.1357835392840738    0.3691871105197010 Se
   0.8634736971274757    0.8663346202108493    0.8702685347922111 Se
   0.8805248452933828    0.6099438263734683    0.1151925452062948 Se
   0.1209637945451401    0.8826392418344700    0.6190998529242492 Se
   0.1202885354424124    0.6172196084679723    0.8837106050894437 Se
   0.8856405197697609    0.8815455907843840    0.3927206273015376 Se
   0.8695848052669521    0.6326450174410726    0.6329262132276212 Se
   0.6380119659965863    0.3757896524999696    0.1344372916600877 Se
   0.6300033792598053    0.6320462930791498    0.8652372947963577 Se
   0.8719038453952339    0.3651223948570982    0.3726453525627824 Se
