Mg7 Sc16 Se32
1.0
  11.1003847944368736    0.0000000000000000    0.0000000000000000
   0.0000000000000000   11.1003847944368736    0.0000000000000000
  -0.0000000000000000   -0.0000000000000000   11.1003847944368736
Mg Sc Se
7 16 32
direct
   0.4983894607057997    0.9964513004990915    0.4909911292850681 Mg
   0.2009807124623788    0.2064018967929515    0.1622774817693509 Mg
   0.4976614620093068    0.5056648083400277    0.0074124905036128 Mg
   0.7424979185358273    0.2506667450154537    0.7440982879664907 Mg
   0.9998387557221782    0.0001279213777099    0.9986397277427468 Mg
   0.7501424829803101    0.7497006580614852    0.2502485137527124 Mg
   0.9982216449691660    0.4976124927824649    0.5000154499942748 Mg
   0.1279449507208456    0.8733508542259301    0.3694577341956189 Sc
   0.3699414244142650    0.1199227459546775    0.8761621162818130 Sc
   0.3778940084290368    0.3753915689944911    0.6180188615513333 Sc
   0.1261405255666460    0.1235277666818504    0.6210371123211269 Sc
   0.1251270944794363    0.3763451632127221    0.8754532366704740 Sc
   0.3784394994117127    0.6231296194858452    0.3735886904349052 Sc
   0.3802706829149696    0.8734080249738307    0.1218429259558469 Sc
   0.1255251165177407    0.6234133033702010    0.1246242647373712 Sc
   0.6203625965885017    0.8803781167645539    0.8682274795130931 Sc
   0.8706528048635784    0.1254753691453857    0.3795256838286246 Sc
   0.8769074771215860    0.3755012690476314    0.1234448189232134 Sc
   0.6239217546234892    0.1267173946339167    0.1256895903368165 Sc
   0.6263230975229058    0.3749086093314405    0.3773718055301749 Sc
   0.8744974731147221    0.6315049817332267    0.8692956464111196 Sc
   0.8731879019809690    0.8810817220034483    0.6217544613415467 Sc
   0.6217303925141358    0.6240724169521691    0.6260574005128507 Sc
   0.3801601564352112    0.1167818381720843    0.1182197122956457 Se
   0.6136523614458996    0.3807681463408467    0.6179862180427013 Se
   0.6182410493138941    0.1142380379482345    0.8861472151924927 Se
   0.3792448541194527    0.3792965651348594    0.3814488806807334 Se
   0.3654592810198158    0.1311979037589399    0.6350196141391069 Se
   0.1328789327918949    0.8671243170261114    0.1329010177421387 Se
   0.1391686011044770    0.1409019556235643    0.8680856493505610 Se
   0.3659462246774217    0.8682036565590328    0.3687150278629333 Se
   0.3892165495757483    0.6137261880998792    0.6172297242762735 Se
   0.6168447216147663    0.8767053821547700    0.1173343997011362 Se
   0.6248215064608531    0.6125266659361281    0.3834055868593368 Se
   0.3888045958118397    0.8857864971004238    0.8819470956834101 Se
   0.3605134241819525    0.6331255129222064    0.1250348204201802 Se
   0.1371178345639776    0.3686150247719364    0.6301372204696449 Se
   0.1342178691103955    0.6342098715223190    0.3666751490141004 Se
   0.3699102265398230    0.3649819744085905    0.8600822850500961 Se
   0.8829453931559745    0.1171441610895908    0.6180074875773318 Se
   0.1245416469624827    0.3782760409030989    0.1143267650028076 Se
   0.1176387342393013    0.1212648707118132    0.3794777380458893 Se
   0.8802883228229575    0.3778909889733578    0.8779013755858569 Se
   0.8642474433648079    0.1336433164465763    0.1354787355693748 Se
   0.6292107973462197    0.8645683037033121    0.6354627010734566 Se
   0.6339445086220395    0.1303600998556584    0.3669849184499433 Se
   0.8672255549696214    0.8676918459065345    0.8662954491012309 Se
   0.8817406759689856    0.6141278568373226    0.1093282696620090 Se
   0.1101851755172614    0.8770691062721016    0.6111298669536697 Se
   0.1110171891773757    0.6238920259475865    0.8785731749832673 Se
   0.8765554951361644    0.8880009308040117    0.3769742160352325 Se
   0.8636718173338783    0.6314552575985328    0.6245979886437013 Se
   0.6323508230463010    0.3673098672906544    0.1321143761503263 Se
   0.6327096601757026    0.6340522983358812    0.8709264481859565 Se
   0.8668978748930090    0.3615353109264634    0.3635090374789442 Se
