Mg7 Sc16 Se32
1.0
  11.1003847944368736    0.0000000000000000    0.0000000000000000
   0.0000000000000000   11.1003847944368736    0.0000000000000000
  -0.0000000000000000   -0.0000000000000000   11.1003847944368736
Mg Sc Se
7 16 32
direct
   0.5036816766929429    0.0066699058686153    0.5043566469196884 Mg
   0.2429000188127701    0.2538461247740070    0.2518150783585278 Mg
   0.5000875209869129    0.5000269488391069    0.0000833490634700 Mg
   0.7639009916627485    0.2481718829163235    0.7361710070340376 Mg
   0.9946212510032026    0.0036880115296250    0.9967176975925410 Mg
   0.7500463453530095    0.7499695841386234    0.2500076798881412 Mg
   0.0010436601932584    0.4984189295784240    0.5005302141628289 Mg
   0.1327969252473456    0.8848168557150604    0.3725159693610945 Sc
   0.3740680357105780    0.1248456523909603    0.8752213024380702 Sc
   0.3586965717953900    0.3748998384862103    0.6204075062400543 Sc
   0.1284698480965703    0.1274114361444321    0.6244729546671642 Sc
   0.1350718568032417    0.3762876173856120    0.8828879913645109 Sc
   0.3753299443779251    0.6262444152282312    0.3901786316840501 Sc
   0.3724739109105397    0.8737534498015308    0.1273902680549873 Sc
   0.1267583954748856    0.6145717911941679    0.1289678058197821 Sc
   0.6251388991048725    0.8866814017675508    0.8717332429997822 Sc
   0.8721124331668066    0.1368629436435339    0.3788219994197402 Sc
   0.8634831528728305    0.3895108247297044    0.1322012432183743 Sc
   0.6267049118902610    0.1222080703572624    0.1253879291462014 Sc
   0.6280138527016979    0.3748926903745983    0.3848299515030384 Sc
   0.8830877011157607    0.6278023293081917    0.8782769697587249 Sc
   0.8725638569645481    0.8645697683174109    0.6281722681960221 Sc
   0.6250486994795155    0.6255338172084702    0.6244395074774931 Sc
   0.3794868916565719    0.1209357149199534    0.1270228093833728 Se
   0.6131753790450986    0.3806940605938899    0.6182165377040472 Se
   0.6176793935027394    0.1167064677987406    0.8836808079467711 Se
   0.3936446172971901    0.3951456775873602    0.3762833800466855 Se
   0.3764251102647008    0.1272489676147213    0.6229582098104230 Se
   0.1280421935688773    0.8800635663960483    0.1385185929268891 Se
   0.1438651800253012    0.1359034499298001    0.8649803653873650 Se
   0.3661538714026806    0.8671535395586480    0.3663491544499778 Se
   0.3866166683809523    0.6276703938819972    0.6291382781678522 Se
   0.6164573601174542    0.8798843643763548    0.1078937953434850 Se
   0.6115808797705080    0.6032977493532143    0.3795504437215100 Se
   0.3781259711455516    0.8856969530671659    0.8783683805069362 Se
   0.3704543768554007    0.6288513994759493    0.1438290516625789 Se
   0.1299001517970202    0.3688625567424401    0.6342670479622414 Se
   0.1186032356368516    0.6231578793481298    0.3749559783163269 Se
   0.3708868972510859    0.3688684642707715    0.8700625251375835 Se
   0.8859427631379724    0.1178222875885217    0.6158246671627967 Se
   0.1099903800747222    0.3658107045466790    0.1136751873543067 Se
   0.1234753268393729    0.1032141123043750    0.3933261902221329 Se
   0.8777735679804938    0.3721879105981603    0.8880290617653346 Se
   0.8679881741752022    0.1325236875050085    0.1302595753639570 Se
   0.6376717372071663    0.8755794123537124    0.6340362730194599 Se
   0.6331424459925372    0.1319787376692384    0.3631827069920701 Se
   0.8670329399958874    0.8670819418954174    0.8671427935588216 Se
   0.8870080637108968    0.6155002262553313    0.1000208940854057 Se
   0.1251775324596540    0.8830034203572974    0.6222146999265283 Se
   0.1165346037068826    0.6366293933924724    0.8889366699343293 Se
   0.8978746622676537    0.8834137621923076    0.3707484651450608 Se
   0.8665311912946174    0.6332190648568055    0.6326351967769268 Se
   0.6277622997368556    0.3665774328351563    0.1372787833387572 Se
   0.6361470480034556    0.6339989687401530    0.8649304915224917 Se
   0.8764888725717125    0.3715014986772511    0.3620456991901995 Se
