Mg7 Sc16 Se32
1.0
  11.1003847944368736    0.0000000000000000    0.0000000000000000
   0.0000000000000000   11.1003847944368736    0.0000000000000000
  -0.0000000000000000   -0.0000000000000000   11.1003847944368736
Mg Sc Se
7 16 32
direct
   0.4989981508615389    0.9989398510801600    0.5012483983263823 Mg
   0.2515379086137509    0.7507860762034391    0.7504921901630055 Mg
   0.1777796438114546    0.2185456460536530    0.2485465094418786 Mg
   0.7500583624152259    0.2503905403743590    0.7502010675801563 Mg
   0.9910046690748098    0.9986306984237445    0.9949006850247570 Mg
   0.7508926236758285    0.7496262001325716    0.2469195006511766 Mg
   0.9999679973707569    0.4966661418665855    0.5013670362113406 Mg
   0.1246037126378726    0.8753116080512905    0.3750921337770042 Sc
   0.3784678014399853    0.1222856185838953    0.8745311441301358 Sc
   0.3745721361430908    0.3748002887259411    0.6238776191513501 Sc
   0.1256623537545326    0.1249280478150840    0.6248919285709583 Sc
   0.1261788794387665    0.3739061532961625    0.8767028220320977 Sc
   0.3763864071692286    0.6249487400178410    0.3772973208911788 Sc
   0.3730318861100776    0.8697905690066737    0.1259193891697759 Sc
   0.1235637959610262    0.6249986435835105    0.1220305487744380 Sc
   0.6219994916816604    0.8685774932374597    0.8724982775886132 Sc
   0.8752721311647352    0.1211468495400794    0.3722601822716127 Sc
   0.8746233460494860    0.3746408978375492    0.1241116498170402 Sc
   0.6252370589947812    0.1250609531512739    0.1237245811241261 Sc
   0.6264950377896810    0.3775349478556736    0.3727365906534344 Sc
   0.8759818072335648    0.6201251050001366    0.8800721168032598 Sc
   0.8698666880457666    0.8717028724452479    0.6326714096920519 Sc
   0.6147047768244005    0.6259275312584387    0.6260120567871704 Sc
   0.3828594151105757    0.1171259196982652    0.1171751788502048 Se
   0.6104019959015647    0.3852115297231394    0.6168401241984984 Se
   0.6163594514830734    0.1129010103653351    0.8866975337758863 Se
   0.3824474923070635    0.3822769492418826    0.3826721099761285 Se
   0.3671661924577547    0.1307553247776787    0.6346846197347550 Se
   0.1333310633490085    0.8729267402526222    0.1368290529249032 Se
   0.1277954974413974    0.1247426185232594    0.8687362900245491 Se
   0.3633593644729554    0.8660876485863046    0.3679341709590648 Se
   0.3809694761451712    0.6216648437312771    0.6163104210747552 Se
   0.6232748386172379    0.8866689586626131    0.1172217531382820 Se
   0.6236262210196247    0.6115002803312538    0.3877345877336342 Se
   0.3818032624885587    0.8803388138646582    0.8835589180340027 Se
   0.3708860239524862    0.6247641462152901    0.1310496830618003 Se
   0.1346164667313696    0.3674188562314686    0.6330969128222053 Se
   0.1380182677900700    0.6345961439294706    0.3591707088521058 Se
   0.3723240413411508    0.3746336538906370    0.8657008822212996 Se
   0.8829851335145080    0.1166470646383716    0.6169858098744031 Se
   0.1089873111038914    0.3843267323993333    0.1218105530147032 Se
   0.1236591381026624    0.1199209123170640    0.3777473001985888 Se
   0.8808309320079084    0.3851006882783957    0.8842783948820802 Se
   0.8643537129306642    0.1335143995672360    0.1263654162010196 Se
   0.6284907322368739    0.8661671381522552    0.6373530036393783 Se
   0.6323804208123490    0.1332237554055229    0.3675533299907289 Se
   0.8668637119311065    0.8647789417854082    0.8667872967619233 Se
   0.8885478753880707    0.6153321881880774    0.1127080325375713 Se
   0.1161365224281135    0.8810345228177269    0.6096950671938191 Se
   0.1197267698329842    0.6193377975626622    0.8848680265942085 Se
   0.8878661748803092    0.8881915886793610    0.3759018176627359 Se
   0.8671863169434798    0.6328253438441573    0.6328992909260416 Se
   0.6319632503155390    0.3624145768303688    0.1357630074972718 Se
   0.6312040890365835    0.6285741395490366    0.8664015380483715 Se
   0.8672450670766675    0.3672633077258907    0.3669744244281236 Se
