Mg7 Sc16 Se32
1.0
  11.1003847944368736    0.0000000000000000    0.0000000000000000
   0.0000000000000000   11.1003847944368736    0.0000000000000000
  -0.0000000000000000   -0.0000000000000000   11.1003847944368736
Mg Sc Se
7 16 32
direct
   0.4984867049899259    0.0054680657542382    0.5086584899372345 Mg
   0.2418162569844182    0.7513908836463578    0.7580702995399974 Mg
   0.4954176917932712    0.5104585537927668    0.9942042426496378 Mg
   0.7468771192019705    0.2479594434689827    0.7527410816603746 Mg
   0.2381532234440958    0.2449901667790384    0.2465011991706391 Mg
   0.7422285293348428    0.7571169603300236    0.2509628057403511 Mg
   0.9899102184133154    0.4917944074661130    0.5078895710259732 Mg
   0.1247458209850625    0.8733176775560870    0.3664151804577114 Sc
   0.3706709992973024    0.1313482258297546    0.8704122677872418 Sc
   0.3728080792619954    0.3810296843138080    0.6266300473399367 Sc
   0.1235842186516496    0.1251491345762023    0.6246831268611672 Sc
   0.1231935605985307    0.3724866630177468    0.8760895117800855 Sc
   0.3771520812877462    0.6304212167972283    0.3805284490377737 Sc
   0.3699781983807249    0.8657918298186495    0.1310839293595032 Sc
   0.1252712023200334    0.6247802015112842    0.1251218006660547 Sc
   0.6203886452149623    0.8689509916447313    0.8849369672451245 Sc
   0.8723603498324867    0.1215369710134431    0.3851634909876924 Sc
   0.8769766963037413    0.3784094823609971    0.1308541415813043 Sc
   0.6215340286433907    0.1245356020359979    0.1304731489330538 Sc
   0.6243992756865937    0.3733517279482979    0.3746819781465865 Sc
   0.8747155437422205    0.6258127923321070    0.8752349532394870 Sc
   0.8671633130188695    0.8649263048140524    0.6195524273219641 Sc
   0.6184504063105712    0.6322160553995356    0.6214629508753980 Sc
   0.3833119222959300    0.1151635486118232    0.1186942564903211 Se
   0.6210546324486990    0.3881419821617976    0.6316714237330595 Se
   0.6155847254154072    0.1201980882312651    0.8824030119294783 Se
   0.3846886595583760    0.3734062025017155    0.3750296114458444 Se
   0.3670904412004783    0.1308929564974691    0.6336309994950632 Se
   0.1413257843403715    0.8587690462995373    0.1331348135811894 Se
   0.1447844115662544    0.1266677524891139    0.8599458156443072 Se
   0.3646828100828632    0.8587822548419312    0.3655067564208446 Se
   0.3816755135392090    0.6137404124087192    0.6154405725013286 Se
   0.6246906932163576    0.8841610727895706    0.1027261554395822 Se
   0.6159781927362885    0.6163412651409262    0.3811627990908228 Se
   0.3831514960162334    0.8831210418360593    0.8866612368001187 Se
   0.3584359246955954    0.6252500371386444    0.1221489838079623 Se
   0.1237786677609575    0.3714814875761149    0.6241571115173928 Se
   0.1352320466334893    0.6324974660961177    0.3681120671622659 Se
   0.3711780620955055    0.3790909910759541    0.8617760274452715 Se
   0.8864477252098975    0.1272157808365845    0.6108057478612312 Se
   0.1148639783273569    0.3828914462519374    0.1185515888975535 Se
   0.1291798801269019    0.1206771101076306    0.3801281504679815 Se
   0.8762455787310973    0.3868548411124013    0.8924639597551844 Se
   0.8718409833207077    0.1358006679640386    0.1437308662043536 Se
   0.6214631905784977    0.8575529721822315    0.6349478948231383 Se
   0.6230452103897665    0.1249476131538644    0.3704702252353820 Se
   0.8523568147398382    0.8738348442950936    0.8672924787540436 Se
   0.8709237363993133    0.6065902522529019    0.1102917189112450 Se
   0.1150852167422743    0.8802903438852095    0.6186682747729588 Se
   0.1324835014852351    0.6131167921307484    0.8790295508232784 Se
   0.8857521401474175    0.8893946246931939    0.3750215796902296 Se
   0.8679745221398804    0.6405368442918007    0.6373557615291017 Se
   0.6476683747764481    0.3671862779200826    0.1396709888583932 Se
   0.6260192871378161    0.6257306520293319    0.8640605854298551 Se
   0.8614003871491762    0.3646084578098632    0.3682523676142286 Se
