Mg7 Sc16 Se32
1.0
  11.1003847944368736    0.0000000000000000    0.0000000000000000
   0.0000000000000000   11.1003847944368736    0.0000000000000000
  -0.0000000000000000   -0.0000000000000000   11.1003847944368736
Mg Sc Se
7 16 32
direct
   0.5052519529679358    0.9964423323179117    0.4917881426155098 Mg
   0.2516033910663955    0.7548760861764294    0.7505054993814613 Mg
   0.4937912603215395    0.4960255311282261    0.9933452456671101 Mg
   0.7533646238998972    0.2542668977890020    0.7545634406952680 Mg
   0.0003063228497078    0.9951936266892336    0.0033919618939757 Mg
   0.7505032949440292    0.7502716716416790    0.2499657318080704 Mg
   0.0017697151489156    0.5002275865618552    0.5001872607227483 Mg
   0.1265089639358881    0.8750404196676518    0.3741027251425816 Sc
   0.3764565700442511    0.1267583479939569    0.8777760975342697 Sc
   0.3686580617027320    0.3731679477291892    0.6274195424015310 Sc
   0.1216729586994863    0.1188287002857700    0.6235701061554351 Sc
   0.1284970300287113    0.3685617220813301    0.8709942474034376 Sc
   0.3747034753950371    0.6248395613071519    0.3747846436909588 Sc
   0.3765506964536487    0.8708280662400023    0.1234009780433826 Sc
   0.1252164244756774    0.6246994636276988    0.1261981884184153 Sc
   0.6180237852244437    0.8749567960590794    0.8783431144142311 Sc
   0.8699042129995580    0.1177647860877044    0.3702589662612188 Sc
   0.8751544436825242    0.3750210551793043    0.1264354455307956 Sc
   0.6260328488772784    0.1295589542866369    0.1248801076597527 Sc
   0.6237103715088381    0.3748263866260250    0.3757069732805053 Sc
   0.8805437779825631    0.6241673555188115    0.8702353286640343 Sc
   0.8761679157220968    0.8760980199181153    0.6269832172675855 Sc
   0.6329540877285122    0.6236268269833222    0.6226129398698473 Sc
   0.3823983333794474    0.1172951502469804    0.1172319211229867 Se
   0.6212391602367584    0.3872424017080584    0.6148470121561045 Se
   0.6107837535652915    0.1118004793345058    0.8798238391380394 Se
   0.3752768146305218    0.3849675896286862    0.3799563303274650 Se
   0.3638364422817253    0.1331099032637981    0.6346213620223021 Se
   0.1243368738898292    0.8622278515164350    0.1316225308164474 Se
   0.1357644011068771    0.1264052208745757    0.8638619958828049 Se
   0.3665145324456705    0.8717848505082605    0.3710429981750303 Se
   0.3910008597129048    0.6124311260654981    0.6148844876936512 Se
   0.6102541599379180    0.8857544281343556    0.1102976174613965 Se
   0.6176872855004358    0.6159910265579113    0.3821856359893033 Se
   0.3835694736244743    0.8755269110226295    0.8798487260139114 Se
   0.3763124579813489    0.6290270202998289    0.1327010352426532 Se
   0.1320183411881060    0.3648677330292600    0.6327939290537240 Se
   0.1432281886549376    0.6328875275108101    0.3656696898731889 Se
   0.3658162468026134    0.3650695310781571    0.8671292472442749 Se
   0.8881849987529261    0.1211972580601362    0.6179019740946187 Se
   0.1166503833122354    0.3848361469172483    0.1161146543230951 Se
   0.1183404300729917    0.1176182285239284    0.3827531162721696 Se
   0.8884216203574304    0.3826511672153845    0.8804267208074553 Se
   0.8676416851452232    0.1318516305727460    0.1321424144254329 Se
   0.6276223208101257    0.8625796580396480    0.6306017746718848 Se
   0.6323038014877861    0.1322894970689835    0.3685160020867312 Se
   0.8678094821522968    0.8668949683347896    0.8700021479929171 Se
   0.8837413294029083    0.6185156377968020    0.1186455044287017 Se
   0.1157620352205363    0.8819795344011522    0.6209190900915476 Se
   0.1232365343264771    0.6110615379780097    0.8828639381307887 Se
   0.8859603561075710    0.8807991860061369    0.3916968481885632 Se
   0.8678800078579949    0.6404106107813506    0.6274996960553626 Se
   0.6325481002961814    0.3639604153892660    0.1341513376355383 Se
   0.6327535652169753    0.6334570960246325    0.8666708794195725 Se
   0.8633654721121048    0.3640154491120757    0.3734704905792109 Se
