Mg7 Sc16 Se32
1.0
  11.1003847944368736    0.0000000000000000    0.0000000000000000
   0.0000000000000000   11.1003847944368736    0.0000000000000000
  -0.0000000000000000   -0.0000000000000000   11.1003847944368736
Mg Sc Se
7 16 32
direct
   0.2848762690523030    0.2214351604085107    0.2913751836124083 Mg
   0.2517918499954614    0.7497143608163707    0.7486721974037780 Mg
   0.4999610554833508    0.5001371127672444    0.0010122892222427 Mg
   0.7594274705229788    0.2522600767551815    0.7470517035832783 Mg
   0.9997549982096624    0.0015909842691720    0.9990774018442155 Mg
   0.7504635499177333    0.7540440799420888    0.2491667341688952 Mg
   0.0057764454953221    0.4969551251321352    0.5046359797385933 Mg
   0.1159067855067721    0.8781200382094467    0.3754753782015336 Sc
   0.3743637454413608    0.1252011466537191    0.8753650307369256 Sc
   0.3787755103428951    0.3724418064150927    0.6242800593802265 Sc
   0.1262802117365006    0.1157211648742234    0.6208816943434198 Sc
   0.1280693767132164    0.3769379956571439    0.8732886152469602 Sc
   0.3746684463239207    0.6227229761489458    0.3746124834483272 Sc
   0.3777621979897559    0.8772546345777911    0.1154528026576815 Sc
   0.1261707843296912    0.6250169142771185    0.1305040464093148 Sc
   0.6253591583304977    0.8752390374444502    0.8757013921401202 Sc
   0.8745232109268222    0.1279544597237331    0.3709820624448812 Sc
   0.8699603303097035    0.3782532296999406    0.1270165924429979 Sc
   0.6249448867058427    0.1210048837624827    0.1212856702977790 Sc
   0.6259274055194006    0.3792550913706497    0.3784145294238713 Sc
   0.8740553625810199    0.6262593116980524    0.8753589762394787 Sc
   0.8704206302910376    0.8731618401669031    0.6220565311509370 Sc
   0.6257320482845877    0.6192445053258098    0.6319910870531028 Sc
   0.3831701582822760    0.1179432843046818    0.1196002131568645 Se
   0.6239793185344862    0.3883431759062534    0.6130666805921486 Se
   0.6171007464232600    0.1166688034568936    0.8821820147296964 Se
   0.3825621763488141    0.3830986106889285    0.3831208711817525 Se
   0.3615886487588007    0.1314268074206432    0.6318914193052436 Se
   0.1352548541219754    0.8746381609931381    0.1287825048159680 Se
   0.1341163038865356    0.1290224346915124    0.8671556793130920 Se
   0.3678279280693470    0.8664083665322962    0.3675398277888279 Se
   0.3823076586954214    0.6160430024631264    0.6191525226579653 Se
   0.6206594634394635    0.8816855778224245    0.1157781943736056 Se
   0.6144624802832892    0.6269031609017510    0.3807006527841241 Se
   0.3751550395007905    0.8842838838044970    0.8806438352913254 Se
   0.3665592178267753    0.6331193370370779    0.1330007805596051 Se
   0.1332846002711426    0.3667985367537850    0.6326559964754077 Se
   0.1402432594754073    0.6331487584210145    0.3675361909229985 Se
   0.3617087279292641    0.3741926707960864    0.8640828286302842 Se
   0.8815574981004242    0.1183308544096964    0.6155642687258320 Se
   0.1158854774081093    0.3873425499375004    0.1115958401963794 Se
   0.1207699901514080    0.1146969818563680    0.3788994924220329 Se
   0.8888086613821999    0.3803750147953595    0.8761330344304592 Se
   0.8676615569141832    0.1343877461559998    0.1336469381204479 Se
   0.6315839794922454    0.8656721695848890    0.6318418432017796 Se
   0.6382628899030013    0.1384222047648177    0.3697409982496798 Se
   0.8743413911732794    0.8663899859592284    0.8700318339206436 Se
   0.8801558457774454    0.6180056996290181    0.1118906756993679 Se
   0.1175887581628250    0.8827592330349980    0.6150438523706047 Se
   0.1140811046880800    0.6246527709609140    0.8777134906339086 Se
   0.8855424086294601    0.8793067313445396    0.3849911677366957 Se
   0.8642494014266723    0.6429220588613294    0.6338648374558401 Se
   0.6329221207905966    0.3599439072026633    0.1319712800616584 Se
   0.6351258043510810    0.6299462893957624    0.8716629527957126 Se
   0.8725886880604656    0.3602523393532329    0.3633524218426507 Se
