Mg7 Sc16 Se32
1.0
  11.1003847944368736    0.0000000000000000    0.0000000000000000
   0.0000000000000000   11.1003847944368736    0.0000000000000000
  -0.0000000000000000   -0.0000000000000000   11.1003847944368736
Mg Sc Se
7 16 32
direct
   0.4998213327621556    0.9996811884718416    0.5006436968686234 Mg
   0.2497406046551149    0.7502652110845941    0.7468841945520943 Mg
   0.1748206478155777    0.2354536115155374    0.2300996922853937 Mg
   0.7543344537776248    0.2475242148496173    0.7424466979948348 Mg
   0.9888014331846718    0.9995965027473553    0.9932259119692702 Mg
   0.7479726872247890    0.7482217472856775    0.2586365654216307 Mg
   0.0095824273541687    0.4979968382998795    0.5023927643702090 Mg
   0.1268797082716794    0.8746299942067048    0.3715564354860375 Sc
   0.3613263235003792    0.1115965831813229    0.8691331019288173 Sc
   0.3593087763013639    0.3762051128499441    0.6246354944949382 Sc
   0.1285492547998524    0.1307664178026278    0.6239670662456986 Sc
   0.1163437188787866    0.3894007031534902    0.8867306186943333 Sc
   0.3735756206432073    0.6259279670421792    0.3773187441593804 Sc
   0.3831418841875587    0.8750950032052195    0.1153476192507157 Sc
   0.1250212456905670    0.6255313860889994    0.1253472436491947 Sc
   0.6156345682559922    0.8837022568876910    0.8813019790145691 Sc
   0.8720418251916376    0.1256631661036488    0.3770619439289368 Sc
   0.8735545165217116    0.3763925866972618    0.1262309217469376 Sc
   0.6171735780532448    0.1252799565496181    0.1109840053680769 Sc
   0.6256735913595344    0.3655815050520597    0.3748026398449726 Sc
   0.8711224445011320    0.6424898211835732    0.8783099831896779 Sc
   0.8819017886891621    0.8706649543670880    0.6147783263297443 Sc
   0.6261174932113508    0.6285450491928870    0.6298940806733780 Sc
   0.3778335541854199    0.1136152390170676    0.1147657322325606 Se
   0.6191406572167668    0.3886751729796492    0.6157183638378693 Se
   0.6177583594615184    0.1097508495922152    0.8782335829567731 Se
   0.3839407518152279    0.3813614949850057    0.3775473165926186 Se
   0.3741347590658216    0.1343440848119085    0.6287689156790323 Se
   0.1355797337190088    0.8824800203978789    0.1265898594731369 Se
   0.1340142858102322    0.1475411979375736    0.8647082262557942 Se
   0.3720146116753179    0.8524956707599142    0.3701954188080678 Se
   0.3677671426648487    0.6229970373994557    0.6260436052306599 Se
   0.6118429535716501    0.8964532677987739    0.1210624400796698 Se
   0.6157542701225643    0.6187305891339806    0.3808745295724547 Se
   0.3859521188743166    0.8834879079410556    0.8859354006014943 Se
   0.3676033255405868    0.6343895733676227    0.1339139835055335 Se
   0.1348441152883954    0.3650389828863055    0.6319609258155547 Se
   0.1320524989681608    0.6285761222481416    0.3630652066635461 Se
   0.3656910449413245    0.3570182580188267    0.8778083643058896 Se
   0.8901260161225983    0.1053820246344885    0.6321187176383286 Se
   0.1130470947772548    0.3816310169925534    0.1188035881567594 Se
   0.1202568699682755    0.1028367373483077    0.3863600362714242 Se
   0.8836558350017666    0.3797076743991097    0.8839804308940926 Se
   0.8610303946322730    0.1346295089674858    0.1348176373496507 Se
   0.6369166381293682    0.8671174989476113    0.6406252682438719 Se
   0.6315207965322681    0.1238009460833090    0.3502827422876571 Se
   0.8763376198938546    0.8738462012061980    0.8661845982632052 Se
   0.8673283317553022    0.6100033206885342    0.1156505315641565 Se
   0.1195729938818779    0.8803123154421930    0.6140040017962084 Se
   0.1173444085835524    0.6141959728683428    0.8866210430086142 Se
   0.8840353229925328    0.8805856170401607    0.3866198453450796 Se
   0.8671075119556719    0.6329457137127239    0.6326731040832043 Se
   0.6329350555630255    0.3672652466878226    0.1329850137645293 Se
   0.6335581020264084    0.6315119562926406    0.8630075445065649 Se
   0.8667029581949258    0.3635241790391514    0.3709324023109949 Se
