Mg7 Sc16 Se32
1.0
  11.1003847944368736    0.0000000000000000    0.0000000000000000
   0.0000000000000000   11.1003847944368736    0.0000000000000000
  -0.0000000000000000   -0.0000000000000000   11.1003847944368736
Mg Sc Se
7 16 32
direct
   0.4843440550945777    0.9901967905141816    0.5165286715120380 Mg
   0.2620393112816417    0.7377822976433117    0.7486631856237340 Mg
   0.5146391590748272    0.5106064680201940    0.0003649737896694 Mg
   0.7514166496793309    0.2727387345357748    0.7551904465040429 Mg
   0.0633125252134869    0.0991552252725716    0.0936759171044588 Mg
   0.7409379371383377    0.7518528305431419    0.2546020084572467 Mg
   0.9826050127317304    0.4940263457420258    0.4850197772710660 Mg
   0.1262424256763110    0.8657811479258105    0.3735947588591811 Sc
   0.3716291327597213    0.1306473514329958    0.8816387368979582 Sc
   0.3748548166044544    0.3750876337871313    0.6241504268380121 Sc
   0.1274386437743670    0.1238203735618651    0.6208642356471127 Sc
   0.1319650136243730    0.3653292606999098    0.8587111224493668 Sc
   0.3691071133168616    0.6235300705667581    0.3725840111039574 Sc
   0.3716296045311594    0.8732150108969019    0.1147540584631149 Sc
   0.1248972876954597    0.6246518387623249    0.1250401422169117 Sc
   0.6407327546743684    0.8633616960294808    0.8750194698625390 Sc
   0.8733261934148316    0.1219481883282240    0.3737263838220009 Sc
   0.8744688481438251    0.3755891413211398    0.1251393796221861 Sc
   0.6280207040875583    0.1126073392862840    0.1141846160207704 Sc
   0.6252439522775521    0.3798967324673244    0.3735050103047327 Sc
   0.8597728235157803    0.6231577588018437    0.8659061355278627 Sc
   0.8760918499414675    0.8743222396918240    0.6138561384343154 Sc
   0.6232974904291364    0.6151658199099012    0.6209615266335436 Sc
   0.3895829136024307    0.1349677889994670    0.1321031114800766 Se
   0.6237717296295096    0.3999432890394380    0.6290560357916390 Se
   0.6090781496701638    0.1338549294986486    0.8804270383109978 Se
   0.3805501736717012    0.3841976109985932    0.3855959872121104 Se
   0.3539312691358931    0.1341655521510082    0.6266592001770895 Se
   0.1204048214896056    0.8582465650903808    0.1479281129318457 Se
   0.1308838603486932    0.1457896754964274    0.8901898657740676 Se
   0.3712145606923966    0.8682015906205863    0.3697458380174869 Se
   0.3830336644692287    0.6174960540366572    0.6177876202570969 Se
   0.6113151416858462    0.8974603531959959    0.1243698931180800 Se
   0.6186703882319569    0.6076748025737115    0.3725857218807445 Se
   0.3789305011750254    0.8832434236231634    0.8797611721863772 Se
   0.3553321812828653    0.6531953221024853    0.1280556203617030 Se
   0.1325741201780645    0.3683677995634167    0.6332159241558744 Se
   0.1215078544812096    0.6178974961536978    0.3855266538777817 Se
   0.3671225007648920    0.3675379735550300    0.8666945527478910 Se
   0.8884995850895372    0.1209869870192374    0.6162608389362577 Se
   0.1428022898387518    0.3809961746177321    0.1117809541240007 Se
   0.1223608701468862    0.1311759520808457    0.3633274017030609 Se
   0.8851908584741293    0.3837199340406072    0.8836637177055010 Se
   0.8524083478079102    0.1354150450878507    0.1350889447076303 Se
   0.6296544704133065    0.8481251749934017    0.6305875214021086 Se
   0.6351036463689412    0.1503709813193168    0.3764077217925993 Se
   0.8706204719088109    0.8601632845514775    0.8632071479688672 Se
   0.8914789642506658    0.6172048534212665    0.1170235741166700 Se
   0.1154867924506226    0.8964962862519963    0.6168282978948371 Se
   0.1031882167824931    0.6085919237241907    0.8640806755912136 Se
   0.8737656013234131    0.8747595535724937    0.3831916401482603 Se
   0.8686610855463925    0.6333334303966334    0.6324955193416664 Se
   0.6158562697097200    0.3624950334860284    0.1363626502178746 Se
   0.6416532080608405    0.6300911021974088    0.8755453976146980 Se
   0.8704848630784605    0.3588357011412830    0.3861952682898082 Se
