Mg7 Sc16 Se32
1.0
  11.1003847944368736    0.0000000000000000    0.0000000000000000
   0.0000000000000000   11.1003847944368736    0.0000000000000000
  -0.0000000000000000   -0.0000000000000000   11.1003847944368736
Mg Sc Se
7 16 32
direct
   0.5159421879551829    0.0132289894722668    0.5038191622058815 Mg
   0.2566549359527815    0.2587251829538423    0.2433804186288544 Mg
   0.5079411962022687    0.5021373248988584    0.9969669578133921 Mg
   0.7389307087268249    0.2567764014172162    0.7546429016516881 Mg
   0.0053778575374737    0.0084817922899876    0.0069396569036263 Mg
   0.7516509834000324    0.7526246854669122    0.2520500367327856 Mg
   0.9944289562145405    0.5057272362666506    0.5020486654726820 Mg
   0.1240330618897225    0.8636503030326583    0.3858824527936412 Sc
   0.3744002079969826    0.1261109440280052    0.8752242484768542 Sc
   0.3750484972323762    0.3948277026287970    0.6235024103606521 Sc
   0.1321396823409215    0.1297724717141291    0.6323276068109005 Sc
   0.1297831439392608    0.3753357694782616    0.8788211691850590 Sc
   0.3829938682426177    0.6211182649385758    0.3736368746539775 Sc
   0.3645517429145553    0.8710702760057468    0.1276994526341758 Sc
   0.1312075576996345    0.6085272509001644    0.1192856281496698 Sc
   0.6240457461003097    0.8660100083031176    0.8711211125109434 Sc
   0.8666149419397253    0.1364205997720903    0.3804436464779947 Sc
   0.8697560965059150    0.3650631859602606    0.1308483734984224 Sc
   0.6161127707052860    0.1083564733711006    0.1377934931731798 Sc
   0.6357309915944920    0.3853452314268889    0.3752350285119818 Sc
   0.8747911034449041    0.6280262555811179    0.8758986289625110 Sc
   0.8705330427220254    0.8690190306508047    0.6184196961283216 Sc
   0.6256242023061492    0.6229539035038192    0.6212820885856584 Sc
   0.3861749728486416    0.1147052934129529    0.1154271400679977 Se
   0.6177340291597591    0.3822123239307481    0.6172910534573222 Se
   0.6278781797781520    0.1118822350748541    0.8805491580866748 Se
   0.3796481407248641    0.3854824479249781    0.3931733595606595 Se
   0.3815864679908385    0.1382979015829461    0.6395790753698041 Se
   0.1400901378819597    0.8703577799093788    0.1201863759970896 Se
   0.1306501387690745    0.1466160663328106    0.8815998635393258 Se
   0.3696887223280817    0.8704087717756844    0.3589961537915061 Se
   0.3834744087087876    0.6175784628668012    0.6185501750516332 Se
   0.6095666415326225    0.8907669762311849    0.1117995124381301 Se
   0.6151179676086679    0.6267022659208524    0.3836270352444516 Se
   0.3899708596713142    0.8694778654881673    0.8878578460008328 Se
   0.3795017087594609    0.6516277187651546    0.1338896621845013 Se
   0.1315258680014979    0.3690492205200188    0.6342624120482222 Se
   0.1201900317779925    0.6308810776445429    0.3680694343407868 Se
   0.3737209814395212    0.3754840251381776    0.8617099596314932 Se
   0.8695554002249787    0.1101889263285031    0.6107389960239175 Se
   0.1175042705660881    0.3621554042056799    0.1196189116464023 Se
   0.1256933464335924    0.1084797601538829    0.3860183425213014 Se
   0.8614592271121130    0.3745883186313579    0.8879540911671167 Se
   0.8774198737591649    0.1215847318599994    0.1223696969449575 Se
   0.6327685032094071    0.8652023756904800    0.6324479941319657 Se
   0.6310639509842053    0.1307832653358571    0.3644826814773453 Se
   0.8712389421928994    0.8587669222644743    0.8882677772492950 Se
   0.8878338252158365    0.6133208152340447    0.1317376078926054 Se
   0.1205096774158798    0.8934505712270639    0.6071212842748480 Se
   0.1163092745311960    0.6164918769564464    0.8848963585429920 Se
   0.8679881482195951    0.8816237704491472    0.3904905684532400 Se
   0.8796586257596610    0.6248270008652959    0.6176863288097610 Se
   0.6297216575532806    0.3603542265548196    0.1271014643782011 Se
   0.6240294543466374    0.6368794524365188    0.8752427438107205 Se
   0.8635466194575976    0.3536283400410998    0.3855412795282038 Se
