Mg7 Sc16 Se32
1.0
  11.1003847944368736    0.0000000000000000    0.0000000000000000
   0.0000000000000000   11.1003847944368736    0.0000000000000000
  -0.0000000000000000   -0.0000000000000000   11.1003847944368736
Mg Sc Se
7 16 32
direct
   0.2456155897475428    0.2521003552802256    0.2566147967074233 Mg
   0.2482407994637732    0.7426232570235269    0.7432856998041175 Mg
   0.5016847857396963    0.5007591577098974    0.9972949788492328 Mg
   0.7504680369495378    0.2385819556508479    0.7506615327697983 Mg
   0.0021707018365090    0.0002463200709501    0.0004951586957966 Mg
   0.7496390513119440    0.7409409421210258    0.2479021512853272 Mg
   0.9972215381657784    0.4914278066892956    0.4908241437526426 Mg
   0.1219178495470740    0.8750149097582086    0.3748137808203237 Sc
   0.3768055009222455    0.1133389454839988    0.8816835926410538 Sc
   0.3732681509610787    0.3759736250808950    0.6255754108338479 Sc
   0.1178915830668540    0.1237034422029454    0.6317687278196940 Sc
   0.1253274571754910    0.3744009695711560    0.8739899498264713 Sc
   0.3753083693624547    0.6124707972151338    0.3722305999899986 Sc
   0.3708944073922529    0.8746236249316907    0.1189035609710815 Sc
   0.1265708821390703    0.6253014013506114    0.1222049022754018 Sc
   0.6239253918205512    0.8763218435513971    0.8722818064679952 Sc
   0.8815070321273060    0.1336409052007897    0.3754412991045767 Sc
   0.8728164413773986    0.3824606851162110    0.1301184521951469 Sc
   0.6295210196924210    0.1253949789059616    0.1172771169397391 Sc
   0.6214208684744857    0.3731131130432112    0.3811811302284310 Sc
   0.8795122191224000    0.6267176360937555    0.8759886809942430 Sc
   0.8774874579890238    0.8659778666095331    0.6199937707931222 Sc
   0.6257824539178140    0.6276646216068816    0.6212708880437736 Sc
   0.3820416842049679    0.1162735658978668    0.1185379828866563 Se
   0.6206628889766422    0.3815551706500317    0.6162813743864298 Se
   0.6182536587438678    0.1134556767501264    0.8794719244023932 Se
   0.3819193961564253    0.3835569824975882    0.3856733453364493 Se
   0.3679488655577449    0.1300485993358295    0.6319030145269018 Se
   0.1318286721396412    0.8683824438737239    0.1290573437329631 Se
   0.1253631280250146    0.1390735804801520    0.8697189792813987 Se
   0.3624323124796068    0.8584770875479959    0.3736931779745455 Se
   0.3719817519247093    0.6099840139755978    0.6126285621870066 Se
   0.6099542854016617    0.8853483778017487    0.1121824227101442 Se
   0.6199503409650076    0.6182395772205161    0.3810894887315265 Se
   0.3810443863437097    0.8772571563894670    0.8894670190305476 Se
   0.3659811054725414    0.6380151602083436    0.1351137921980140 Se
   0.1414278617148963    0.3769657201010360    0.6343754405085646 Se
   0.1297688230183531    0.6373474058158123    0.3667894011625726 Se
   0.3635371627998592    0.3615479059461518    0.8771939171386930 Se
   0.8934553494360081    0.1256794704283786    0.6153002346647475 Se
   0.1182007480295154    0.3822237747273385    0.1281798692287857 Se
   0.1260994487920313    0.1216632573836431    0.3877807359713230 Se
   0.8884205981586731    0.3816660902448062    0.8789685719925580 Se
   0.8576511833766411    0.1274533860876452    0.1369427419858717 Se
   0.6344144603046123    0.8674385432661232    0.6319937713815760 Se
   0.6309138652327451    0.1268773583067861    0.3655835064943620 Se
   0.8676947704958480    0.8691741713418267    0.8678192456188412 Se
   0.8838931673022224    0.6174157975241016    0.1171330243859583 Se
   0.1142492585912668    0.8722062786762738    0.6239651267594314 Se
   0.1167039362690609    0.6170035772518527    0.8825662198761387 Se
   0.8823738446458917    0.8836284933495709    0.3813810358241687 Se
   0.8602726340418240    0.6391965822144382    0.6332469515116830 Se
   0.6289312325814653    0.3588785180397553    0.1432338951993512 Se
   0.6322832171823912    0.6338286232110079    0.8686371447322206 Se
   0.8666265459650352    0.3660898314800904    0.3669748869638823 Se
