Mg7 Sc16 Se32
1.0
  11.1003847944368736    0.0000000000000000    0.0000000000000000
   0.0000000000000000   11.1003847944368736    0.0000000000000000
  -0.0000000000000000   -0.0000000000000000   11.1003847944368736
Mg Sc Se
7 16 32
direct
   0.4997937246708225    0.9992777474606970    0.4999267027789476 Mg
   0.2509196788816809    0.7492197006591614    0.7445264210911161 Mg
   0.4996085029240699    0.4995179189511542    0.0005679029927156 Mg
   0.7536568929159199    0.2426033884412826    0.7474214054389291 Mg
   0.9998431474269704    0.0000805956000044    0.0001155558914145 Mg
   0.7461362157137161    0.7450579440805619    0.2512693292840841 Mg
   0.1414727063275052    0.3623710944065917    0.3541969335995643 Mg
   0.1257486016365011    0.8759335409415508    0.3747936231069917 Sc
   0.3761179561975679    0.1270884131527892    0.8741716261058224 Sc
   0.3734016065335566    0.3686510337928438    0.6273618815296288 Sc
   0.1254850070916836    0.1262662852609590    0.6291435857337707 Sc
   0.1233440137417312    0.3773565216638772    0.8762890325154929 Sc
   0.3752378466385811    0.6251662008063962    0.3754358085899641 Sc
   0.3731372020560352    0.8748795258591349    0.1248478918570032 Sc
   0.1312389634910669    0.6197189599419125    0.1249891408474918 Sc
   0.6186574109911535    0.8766900141258305    0.8729075405781250 Sc
   0.8783535219533644    0.1195654717074950    0.3708672999363380 Sc
   0.8815009703058788    0.3698759534285189    0.1290644833826569 Sc
   0.6287671430787191    0.1254601574275889    0.1289716340386898 Sc
   0.6171397562298677    0.3692841841696869    0.3786353413754288 Sc
   0.8739855493122450    0.6249690968400474    0.8775222779485857 Sc
   0.8702644589187472    0.8757491590922618    0.6228649164982744 Sc
   0.6263641638889094    0.6241653277026702    0.6252411493911543 Sc
   0.3830973299004529    0.1160202314613376    0.1170484648388345 Se
   0.6158249809338558    0.3816204128388412    0.6202908205085672 Se
   0.6097115282840521    0.1188860620247899    0.8798770172803358 Se
   0.3909478838777867    0.3825121326945772    0.3769589759623115 Se
   0.3606703423598053    0.1355218959754524    0.6281224861516602 Se
   0.1325294995315091    0.8599652194720053    0.1337560255831836 Se
   0.1313698899768679    0.1403300996787764    0.8710488081618403 Se
   0.3689891349682698    0.8687019294291379    0.3632946024392502 Se
   0.3835255679043098    0.6166263539414059    0.6145579090484914 Se
   0.6140237784175585    0.8882270680275554    0.1083356451781627 Se
   0.6268052723986725    0.6133613962329398    0.3820244259790475 Se
   0.3872072836372738    0.8808968679446746    0.8814627720472156 Se
   0.3643699774090421    0.6322380666054221    0.1326560503977709 Se
   0.1310603311982166    0.3604538948872646    0.6338710615967549 Se
   0.1398460717416436    0.6346899631370154    0.3681668571593821 Se
   0.3675395665663796    0.3678183099928978    0.8671460720082411 Se
   0.8828636011587344    0.1171146513647268    0.6171127409305142 Se
   0.1210814841182047    0.3759517852668774    0.1176804975472786 Se
   0.1113446629920789    0.1112906924679508    0.3787180919347946 Se
   0.8749755372090510    0.3825715029772407    0.8900802857960335 Se
   0.8661293824564849    0.1355176935814108    0.1322470599087830 Se
   0.6320145002977299    0.8662097468572815    0.6341031431982370 Se
   0.6363322569236485    0.1295034850824776    0.3652749048790895 Se
   0.8658863559057005    0.8669689869745898    0.8701216449807214 Se
   0.8805908912909790    0.6172693913752655    0.1177828791555081 Se
   0.1132062381949996    0.8891815034762145    0.6233358959072487 Se
   0.1168283943826879    0.6102437412801502    0.8841301234515011 Se
   0.8844210116560739    0.8842855485631005    0.3859329013334292 Se
   0.8629669467722790    0.6365910309996271    0.6340996513899071 Se
   0.6343693398823899    0.3679263704120769    0.1326778240623817 Se
   0.6331530834770627    0.6322676822391339    0.8669599688884795 Se
   0.8708357908461722    0.3675482944324946    0.3714894831640302 Se
