Mg7 Sc16 Se32
1.0
  11.1003847944368736    0.0000000000000000    0.0000000000000000
   0.0000000000000000   11.1003847944368736    0.0000000000000000
  -0.0000000000000000   -0.0000000000000000   11.1003847944368736
Mg Sc Se
7 16 32
direct
   0.5004677464310754    0.9993474654926153    0.5003530644720394 Mg
   0.2482783713711113    0.7496275113480820    0.7489941903968534 Mg
   0.1948144133367703    0.2271534849995952    0.2599258210285653 Mg
   0.7499217578430271    0.2501692650155291    0.7490620704652250 Mg
   0.9979783304211849    0.9999708807297794    0.0014723252929403 Mg
   0.7503378004386315    0.7499782764433924    0.2500281491876958 Mg
   0.9999626385801818    0.4994397484030390    0.5006997586966324 Mg
   0.1270148539475244    0.8746996005398886    0.3747566413380342 Sc
   0.3750891506247233    0.1259361269140416    0.8759284059071561 Sc
   0.3749235839430779    0.3749277439343245    0.6250460036991190 Sc
   0.1267243338012461    0.1264310828223676    0.6271486732268586 Sc
   0.1248040356458437    0.3740229763653095    0.8755735648856466 Sc
   0.3720928682876377    0.6252697427295576    0.3717440962838582 Sc
   0.3752477091486444    0.8709746400497467    0.1234908323290901 Sc
   0.1250089404777105    0.6229910929964628    0.1289106067194789 Sc
   0.6242014978482219    0.8759228741938772    0.8736522018272409 Sc
   0.8744065855607226    0.1248116577736163    0.3755000035072324 Sc
   0.8759357944603502    0.3748107111420716    0.1254591971816616 Sc
   0.6248601206624678    0.1215623154391433    0.1271727249748944 Sc
   0.6216119904578109    0.3741810775750233    0.3768740661933526 Sc
   0.8747870305690816    0.6255727388434681    0.8752706167532526 Sc
   0.8741379295171184    0.8751965103144330    0.6254789763695734 Sc
   0.6247118303311379    0.6245856202165685    0.6249658238268535 Sc
   0.3846482792989945    0.1150800082571753    0.1157659032934782 Se
   0.6158913735535013    0.3832023182826775    0.6170254585357340 Se
   0.6159405120634271    0.1169696103711886    0.8799506181223696 Se
   0.3818848922547783    0.3824051282269917    0.3832986662199208 Se
   0.3672556848924808    0.1331991131658725    0.6331814137945442 Se
   0.1340154507906384    0.8664266795517755    0.1331402581721610 Se
   0.1353736330281194    0.1297562915352129    0.8670989317577352 Se
   0.3677949309953494    0.8676714739950463    0.3671530225896262 Se
   0.3837457857307058    0.6198557956915411    0.6170687688305974 Se
   0.6161007879967789    0.8820401531263894    0.1176545827247599 Se
   0.6186314460894110    0.6195535043497279    0.3825309757111740 Se
   0.3821159687428379    0.8868968888423815    0.8844500065420975 Se
   0.3671600556826275    0.6328726654606448    0.1328907513819056 Se
   0.1337553823197220    0.3674516417119642    0.6327640368939220 Se
   0.1321810902105985    0.6338186049382171    0.3688209449736879 Se
   0.3670116894114198    0.3670392630529721    0.8673832078933836 Se
   0.8839456602510010    0.1172038714493596    0.6165721163894856 Se
   0.1176075768600493    0.3806741121876248    0.1175502094616327 Se
   0.1158595206932257    0.1149482014334726    0.3857579219539345 Se
   0.8847422553733214    0.3825863962982116    0.8829967327561331 Se
   0.8672846242950664    0.1325222463834812    0.1327828998553087 Se
   0.6328138747099131    0.8679498353557855    0.6343175473926079 Se
   0.6327312883336557    0.1323849789669405    0.3680377681882592 Se
   0.8685028895269290    0.8710107475212904    0.8670530161056678 Se
   0.8828456500501736    0.6170798920139049    0.1173941601433299 Se
   0.1168449811252246    0.8825209216901531    0.6172362040373157 Se
   0.1172120958732357    0.6171496245949465    0.8828256210562839 Se
   0.8825212550016981    0.8852560082897555    0.3842039752490808 Se
   0.8636884635331932    0.6324063580322909    0.6321335069425088 Se
   0.6315802179964352    0.3658927958728987    0.1303655263764454 Se
   0.6296291624539324    0.6327897744058643    0.8660195991141022 Se
   0.8687825167442637    0.3692662785465871    0.3656863479682521 Se
