Mg7 Sc16 Se32
1.0
  11.1003847944368736    0.0000000000000000    0.0000000000000000
   0.0000000000000000   11.1003847944368736    0.0000000000000000
  -0.0000000000000000   -0.0000000000000000   11.1003847944368736
Mg Sc Se
7 16 32
direct
   0.2514892646404934    0.2510696030422417    0.2456237116993790 Mg
   0.2505026231619391    0.7499573781409753    0.7456471301319783 Mg
   0.4989071653035554    0.5006493391915902    0.0003059276666112 Mg
   0.7282588320446662    0.2546188402569527    0.7593839975952371 Mg
   0.0097330859932147    0.0158723744683024    0.0032077665119026 Mg
   0.7516142751720344    0.7612638692465920    0.2551380361076722 Mg
   0.9958335916135779    0.5035938724998100    0.5018770264318508 Mg
   0.1251735128583708    0.8741714136563939    0.3736360485871689 Sc
   0.3761698748353126    0.1221666022871323    0.8810394514343943 Sc
   0.3733500384531960    0.3780655750036678    0.6125891711495346 Sc
   0.1176370220234704    0.1193964855129070    0.6296208063218153 Sc
   0.1466710760137939    0.3816958296873080    0.8818118830967807 Sc
   0.3753643878707901    0.6280641539466209    0.3767093887925492 Sc
   0.3916735899994454    0.8829731053334294    0.1343417248745055 Sc
   0.1252674571314657    0.6420685025462878    0.1159560650870891 Sc
   0.6187998830134320    0.8943386403753569    0.8818118548024212 Sc
   0.8615827691070369    0.1181075930267122    0.3675700911177763 Sc
   0.8736716956130217    0.3779611937358229    0.1232118184314267 Sc
   0.6221140587371594    0.1259346596969035    0.1341754874561222 Sc
   0.6225385078052973    0.3833212648245135    0.3690185984250745 Sc
   0.8861426673415248    0.6116115383803499    0.8637656116344568 Sc
   0.8832033478384055    0.8733670732924713    0.6239147036730900 Sc
   0.6252077934310779    0.6299828768430162    0.6209733326037519 Sc
   0.3813953576839052    0.1084150853943188    0.1261363110622939 Se
   0.6186599901991556    0.3908145647082104    0.6366058684099273 Se
   0.6097964467401114    0.1173634641635279    0.8578514005140124 Se
   0.3959705208562965    0.3980437527868237    0.3951529657095533 Se
   0.3626872407420347    0.1321616742332097    0.6438270910921993 Se
   0.1443066369168602    0.8783020428890860    0.1339327382738097 Se
   0.1391368052582017    0.1339136940566581    0.8713449104851304 Se
   0.3651042014923862    0.8636376845045881    0.3813948402902110 Se
   0.3977919635659287    0.6304050058038897    0.6142264253430646 Se
   0.6315593622610839    0.8705699534700518    0.1196953758100524 Se
   0.6384380971696275    0.6155622692205077    0.3789385472496257 Se
   0.4058689453168945    0.8733924585195978    0.8790472915598662 Se
   0.3642683401358961    0.6415127424381301    0.1409075489470095 Se
   0.1162518059628493    0.3821268128632467    0.6283915195025587 Se
   0.1256614893282406    0.6221761763496334    0.3469714183939662 Se
   0.3666790713529532    0.3652706977270686    0.8647027683554740 Se
   0.8835399069006719    0.1180673358915314    0.6136425420280741 Se
   0.1184641108771761    0.3827145881176593    0.1162758224851513 Se
   0.1257732554424121    0.1107020959512378    0.3700626085148704 Se
   0.8947678129879315    0.3982291748174184    0.8814963031419129 Se
   0.8763998503798958    0.1182079640996238    0.1326891198145722 Se
   0.6337273305194157    0.8711866633036086    0.6301787106047176 Se
   0.6305854321020156    0.1290987190380866    0.3743321088662275 Se
   0.8600201671813739    0.8537103801617930    0.8646783155387420 Se
   0.8784023368315992    0.6143680728972660    0.1381242074410826 Se
   0.1256544309726823    0.8830006229711710    0.6120891731433409 Se
   0.1201542060371123    0.6175035208097815    0.8768573235006903 Se
   0.8823087123354333    0.8731694357497025    0.3771050346509071 Se
   0.8743974580372293    0.6356527554447143    0.6405568352570763 Se
   0.6250390700520723    0.3812239772649480    0.1197288397471315 Se
   0.6345795473824906    0.6347766416457113    0.8689055606675405 Se
   0.8575372249234555    0.3808742132420815    0.3489732235775804 Se
