Mg7 Sc16 Se32
1.0
  11.1003847944368736    0.0000000000000000    0.0000000000000000
   0.0000000000000000   11.1003847944368736    0.0000000000000000
  -0.0000000000000000   -0.0000000000000000   11.1003847944368736
Mg Sc Se
7 16 32
direct
   0.4936045851998553    0.0065447074629680    0.5082905173412319 Mg
   0.2509130976714379    0.7502057443097114    0.7507916033885410 Mg
   0.4968400336920209    0.4997355340392692    0.0003902780661883 Mg
   0.7531153578044658    0.2530584163956541    0.7519496261163444 Mg
   0.9967945021096717    0.9953946372839860    0.0010753304159121 Mg
   0.7495121215456444    0.7472447050059225    0.2505778232802460 Mg
   0.1491706478779290    0.3693932634114029    0.3432333038666832 Mg
   0.1231812072797257    0.8832278823991723    0.3726154219736257 Sc
   0.3785603013879402    0.1234064535849504    0.8820520983235317 Sc
   0.3815396513272170    0.3654481926833859    0.6209922992695877 Sc
   0.1204124628860182    0.1156341046403365    0.6178440703955907 Sc
   0.1253343156397458    0.3756062918154543    0.8716113618713291 Sc
   0.3737569675791754    0.6249441972190390    0.3727381060123639 Sc
   0.3753006226468161    0.8750300830342245    0.1246634731090542 Sc
   0.1370747320034255    0.6195275268588802    0.1266144485870988 Sc
   0.6287088156434314    0.8696654897964415    0.8764736842212049 Sc
   0.8716004006749152    0.1318500846019718    0.3746893407903003 Sc
   0.8692513632632255    0.3731984375137859    0.1264639362593734 Sc
   0.6341910033343121    0.1209714356258682    0.1155569274994194 Sc
   0.6298472581938731    0.3781066028502112    0.3779520569761460 Sc
   0.8714422195591530    0.6282034461835897    0.8807239002226001 Sc
   0.8746362488565671    0.8752523239023878    0.6251945636072509 Sc
   0.6343176217204435    0.6210959211454254    0.6292875519750398 Sc
   0.3849609666448260    0.1184286323299990    0.1179778133650346 Se
   0.6218656390002582    0.3772986831455772    0.6249413134887277 Se
   0.6080703578854899    0.1172097920588219    0.8824919973812164 Se
   0.3883652325888591    0.3855003999053386    0.3850930125251991 Se
   0.3722645260355656    0.1397095673913096    0.6268156069092987 Se
   0.1346767350463076    0.8648294490267719    0.1293805174490159 Se
   0.1247838710686363    0.1252657350613489    0.8662329447214349 Se
   0.3669993761600148    0.8686111204666026    0.3645737683538162 Se
   0.3825071646122282    0.6181158745438680    0.6161330641062450 Se
   0.6264832058607935    0.8774069493345843    0.1114247294668906 Se
   0.6137124305147947    0.6192145692852359    0.3842669416102459 Se
   0.3832691410896248    0.8833944047853191    0.8888276224745956 Se
   0.3604530044069406    0.6359061990352181    0.1350972254167111 Se
   0.1293107636520092    0.3650676527772467    0.6355375379682193 Se
   0.1324927064786822    0.6334449354914629    0.3643599347673514 Se
   0.3643895473202792    0.3652927653115711    0.8662444190724683 Se
   0.8791519465500343    0.1167971889795766    0.6078723300021647 Se
   0.1161976778907457    0.3832282325126043    0.1171003280150500 Se
   0.1189926293675487    0.1171809692769145    0.3813540883770489 Se
   0.8906880438682481    0.3852658252344430    0.8824466970951982 Se
   0.8678469047670788    0.1344436402606236    0.1321694639564760 Se
   0.6294981417208527    0.8662909135983045    0.6310733937846997 Se
   0.6307828713372327    0.1317406605317657    0.3667420928348835 Se
   0.8749948308417554    0.8607101570207657    0.8641167474703466 Se
   0.8807906035616178    0.6205970545697380    0.1159714510653852 Se
   0.1187838652774002    0.8838223527072483    0.6184212181897317 Se
   0.1128260294934023    0.6201845449348157    0.8794157534983984 Se
   0.8810040879843016    0.8793654326558578    0.3843875493525075 Se
   0.8696626100623605    0.6265721307046045    0.6292447885206052 Se
   0.6382902318538363    0.3659475250577638    0.1354559460248409 Se
   0.6347416231070109    0.6334584601975461    0.8672539284211915 Se
   0.8729738258492236    0.3684177660506212    0.3648402059638530 Se
