Mg7 Sc16 Se32
1.0
  11.1003847944368736    0.0000000000000000    0.0000000000000000
   0.0000000000000000   11.1003847944368736    0.0000000000000000
  -0.0000000000000000   -0.0000000000000000   11.1003847944368736
Mg Sc Se
7 16 32
direct
   0.4999485681724041    0.0007309155284890    0.5002990091791201 Mg
   0.2497916176402742    0.7497732362524789    0.7497138100853294 Mg
   0.5003816633476842    0.4995567739709353    0.9996144506228273 Mg
   0.7514260430322977    0.2518356379317297    0.7513471794296013 Mg
   0.0002265669781644    0.0018261527724998    0.9980026509226020 Mg
   0.7506754424237193    0.7497994081065938    0.2503191967555244 Mg
   0.2498475592039406    0.2497243657902184    0.2500111663236216 Mg
   0.1269903140418537    0.8768852764214737    0.3728087935873631 Sc
   0.3774626146784976    0.1256583070769724    0.8720594066940849 Sc
   0.3763584512667797    0.3719628700250869    0.6261054032584656 Sc
   0.1229486141729498    0.1255635452090231    0.6211059575987425 Sc
   0.1246721459499445    0.3755198793815118    0.8753483169220867 Sc
   0.3758107345587102    0.6250288569468816    0.3746640479296813 Sc
   0.3743318023754128    0.8759336969114618    0.1242734128179273 Sc
   0.1237812990815992    0.6263452133505891    0.1239956668617735 Sc
   0.6237391930851484    0.8746991110915107    0.8777137928396227 Sc
   0.8769715540398789    0.1282868235143157    0.3764978742584187 Sc
   0.8751660385041077    0.3749711695651081    0.1248623196921518 Sc
   0.6255151099440693    0.1248617554252200    0.1251471319690392 Sc
   0.6228425414046633    0.3745919508991967    0.3751495355471149 Sc
   0.8742510112817964    0.6248799549777088    0.8767236935556602 Sc
   0.8731532734637960    0.8766036909559362    0.6259554625750078 Sc
   0.6234565803761217    0.6268780108357364    0.6241665703556298 Sc
   0.3803259071136271    0.1183233166610590    0.1148493701055671 Se
   0.6162291868040470    0.3827634556549198    0.6144428240481027 Se
   0.6148445357596805    0.1140828676294361    0.8840094403099945 Se
   0.3829133850130059    0.3815279787975057    0.3818044162719880 Se
   0.3680567280351815    0.1325532007420309    0.6319413657897844 Se
   0.1326077429437606    0.8676067577240559    0.1343935139001533 Se
   0.1297527215848024    0.1330980038142787    0.8642859216836857 Se
   0.3668863592351201    0.8659412700807780    0.3658163558351230 Se
   0.3830623170748647    0.6174444698090770    0.6137603431250112 Se
   0.6170318369924553    0.8836655788143617    0.1189661410158893 Se
   0.6185384313372968    0.6173588087363644    0.3802833898997073 Se
   0.3837348500182413    0.8839648064813914    0.8827820957416307 Se
   0.3668574901343631    0.6325474608317189    0.1328899074715394 Se
   0.1335026257608650    0.3658543103237341    0.6302215664541154 Se
   0.1314468711789885    0.6334945817926794    0.3691136926886970 Se
   0.3683256889717030    0.3679308880591322    0.8683755671226462 Se
   0.8834863005372960    0.1158157549127732    0.6149741253984918 Se
   0.1189603169135700    0.3854916188936567    0.1173566064181616 Se
   0.1170043073367086    0.1170911132834564    0.3829572536672074 Se
   0.8851083670013011    0.3822761645067253    0.8790871370643267 Se
   0.8673486526100070    0.1326501343733951    0.1327983438603755 Se
   0.6334060582518020    0.8664131382859928    0.6324101384592546 Se
   0.6370141808744380    0.1330658033629593    0.3668250678520266 Se
   0.8650062659795030    0.8698257673557940    0.8694820636352433 Se
   0.8831273310572910    0.6144202337941395    0.1152899531619879 Se
   0.1165919066877242    0.8825298580026543    0.6146575694269407 Se
   0.1175449070059470    0.6194615476481308    0.8805750412356048 Se
   0.8827627554916606    0.8830293276089618    0.3825545029496647 Se
   0.8680747024682968    0.6312307782492382    0.6333839404841194 Se
   0.6348255109672569    0.3640774526356965    0.1325260253995273 Se
   0.6333310002319150    0.6358402871384713    0.8678927017566939 Se
   0.8669817499703117    0.3670261096400231    0.3670653948280402 Se
