Mg7 Sc16 Se32
1.0
  11.1003847944368736    0.0000000000000000    0.0000000000000000
   0.0000000000000000   11.1003847944368736    0.0000000000000000
  -0.0000000000000000   -0.0000000000000000   11.1003847944368736
Mg Sc Se
7 16 32
direct
   0.4957672248315946    0.0019978566331178    0.5016670697149083 Mg
   0.2535651329648320    0.7556171164851779    0.7530676535400831 Mg
   0.4995131071778245    0.5009611798444089    0.0012069948859059 Mg
   0.7423037470054624    0.2361022294083788    0.7617588625052236 Mg
   0.9950447305401590    0.9871237522243871    0.9973535621074450 Mg
   0.7521171343686262    0.7507622597282239    0.2512278064400232 Mg
   0.1589443596586088    0.3017925234431276    0.2370588292603306 Mg
   0.1122017008086252    0.8737600975060726    0.3863179081778633 Sc
   0.3745190140961648    0.1252737994812992    0.8751038991498689 Sc
   0.3629991941893622    0.3723721375823358    0.6397570785768919 Sc
   0.1296086367996095    0.1367187128733125    0.6360499485997904 Sc
   0.1378079373579613    0.3878037473872360    0.8720952276162778 Sc
   0.3666389903880683    0.6284397860432178    0.3806755329800435 Sc
   0.3749559689857074    0.8753945381264718    0.1252783352581620 Sc
   0.1273470998564117    0.6227933900889054    0.1315867833816769 Sc
   0.6199379424016751    0.8860049795592343    0.8732508453272950 Sc
   0.8744738339495056    0.1318333175894574    0.3724858359475448 Sc
   0.8790429012903519    0.3764464528393903    0.1257389208281636 Sc
   0.6250410605857774    0.1229499599278960    0.1276830462754692 Sc
   0.6205236212375036    0.3739518474610136    0.3713718629166226 Sc
   0.8732338325842569    0.6259650753534065    0.8797920985845286 Sc
   0.8768239884857835    0.8765177334079833    0.6244859789955078 Sc
   0.6214714054031278    0.6294511266635709    0.6203107443586668 Sc
   0.3962043034373326    0.1272920579239641    0.1090136695974363 Se
   0.6168521900250322    0.3731340339356128    0.6235348058498699 Se
   0.6133219259641374    0.1239435981395350    0.8792046587803544 Se
   0.3803541999916825    0.3772982547173528    0.3842518835379815 Se
   0.3714207863519490    0.1355965913443758    0.6169328364576799 Se
   0.1246192998691149    0.8681259000324918    0.1370911264447612 Se
   0.1398678979904808    0.1351316618726730    0.8687296435086912 Se
   0.3599722440160164    0.8600063544689766    0.3819962669168989 Se
   0.3796486163694396    0.6174753460005202    0.6161609834945504 Se
   0.6182385818994387    0.9005302728247534    0.1113942591196215 Se
   0.6169073510717866    0.6167480406403569    0.3825118526355828 Se
   0.4005617103891852    0.8781968694945792    0.8867675647340947 Se
   0.3772764507963131    0.6428687912810116    0.1441753033531527 Se
   0.1239484232419012    0.3689724388582943    0.6434642086795537 Se
   0.1207697197639061    0.6379122384857610    0.3800371426037361 Se
   0.3703381176884220    0.3685713010881584    0.8656528693633162 Se
   0.8828917587761470    0.1193869359457289    0.6157010513499011 Se
   0.1165948578902087    0.3821508955408784    0.1176839438490763 Se
   0.1109433737864440    0.1134167868948901    0.3862089054588331 Se
   0.8837624436925466    0.3972821114139301    0.8728416328044558 Se
   0.8597108292203417    0.1337812536493541    0.1324650605244057 Se
   0.6291970565181877    0.8650049748575941    0.6306337967992698 Se
   0.6440180193041201    0.1369243993138577    0.3629274267611644 Se
   0.8509605012159380    0.8632850274108825    0.8586087583745194 Se
   0.8842619013679588    0.6013161038436909    0.1136186629556675 Se
   0.1163307983041862    0.8888787900991553    0.6087331145173925 Se
   0.1164535599737760    0.5999322222309983    0.8769534899179408 Se
   0.8820721825993909    0.8796218172097101    0.3817104283682516 Se
   0.8678142310007522    0.6450272142759542    0.6341599915975803 Se
   0.6408468968661750    0.3613439290614304    0.1246853717339814 Se
   0.6392687517087106    0.6354636137058273    0.8661343779398974 Se
   0.8659095883400869    0.3647626304183831    0.3656157386630918 Se
