Mg7 Sc16 Se32
1.0
  11.1003847944368736    0.0000000000000000    0.0000000000000000
   0.0000000000000000   11.1003847944368736    0.0000000000000000
  -0.0000000000000000   -0.0000000000000000   11.1003847944368736
Mg Sc Se
7 16 32
direct
   0.5073685107695450    0.9961597029469964    0.4905625868368539 Mg
   0.2503572226710944    0.7432882451902199    0.7576177829904210 Mg
   0.3677193287473816    0.3430789522234892    0.1399679405619078 Mg
   0.7491270456751085    0.2572423120086932    0.7582299145227758 Mg
   0.0117295474577696    0.0089991335523386    0.9946389213041978 Mg
   0.7579964517796134    0.7562376628175609    0.2577327543306560 Mg
   0.9950199763236273    0.4907238618958644    0.4949775728314806 Mg
   0.1279611245715697    0.8752112962956279    0.3746931587352578 Sc
   0.3750782405903276    0.1277400863972603    0.8783108942912905 Sc
   0.3852490374960252    0.3726315273009134    0.6328509014597774 Sc
   0.1309464408378526    0.1289957233593185    0.6222715646717472 Sc
   0.1167607099232018    0.3743372224163592    0.8765349261781387 Sc
   0.3695444251025648    0.6237868000565112    0.3754570872310761 Sc
   0.3737159822162970    0.8844190456711855    0.1152465164112039 Sc
   0.1129892826412547    0.6336286116470162    0.1235964329769531 Sc
   0.6237108861530332    0.8788856055189058    0.8727301606683888 Sc
   0.8749222440937008    0.1248156785268732    0.3747392999554598 Sc
   0.8748008150972286    0.3776739870816493    0.1269096970471963 Sc
   0.6276537508901761    0.1260255220488347    0.1247072868607652 Sc
   0.6208645594230301    0.3862879857718145    0.3697985350818004 Sc
   0.8769824498528309    0.6252943343570095    0.8761861222617788 Sc
   0.8807082117232314    0.8749623985734725    0.6241138526173288 Sc
   0.6256715902817916    0.6279563519598717    0.6386976336307930 Sc
   0.3833611178121348    0.1167488487367195    0.1168984683102923 Se
   0.6262602111770272    0.3798827249613783    0.6052431094616716 Se
   0.6128251709467203    0.1045967957807699    0.8844838658572856 Se
   0.3787985562995902    0.3851665535339823    0.3872690465289025 Se
   0.3621183109033204    0.1323643505463299    0.6348975223057255 Se
   0.1305073079008837    0.8662966315240672    0.1302966705268337 Se
   0.1333480209764082    0.1408509984021630    0.8640790282847943 Se
   0.3734694968457248    0.8524538485536515    0.3673545851116282 Se
   0.3857163502924497    0.6158767804263914    0.6010270766979203 Se
   0.6184708000518918    0.8824938675786125    0.1146606156518587 Se
   0.6118672140560526    0.6193668806467021    0.3687517244502132 Se
   0.3793719615607036    0.8878946489710519    0.8876912168143946 Se
   0.3669965461304444    0.6326225751210720    0.1326577990505637 Se
   0.1243905786341216    0.3667464573001387    0.6374253488329724 Se
   0.1352836531058625    0.6491569050994680    0.3653512664064074 Se
   0.3681633690133055    0.3665232514133437    0.8650581608412085 Se
   0.8884141337622680    0.1230045707012004    0.6057576850942035 Se
   0.1157959233453482    0.3752155680907465    0.1191813534537837 Se
   0.1158742729182520    0.1093806882842533    0.3862890246531577 Se
   0.8802636229592914    0.3841139846596239    0.8836591110505064 Se
   0.8597559398824978    0.1398908450652787    0.1400808210599465 Se
   0.6345575720887252    0.8703524422756286    0.6312839491871285 Se
   0.6264302881099519    0.1390714688857553    0.3591303807623968 Se
   0.8675466151275022    0.8629124891456582    0.8792543098102144 Se
   0.8974247916327915    0.6172453637953154    0.1169186966773433 Se
   0.1140445949422004    0.8846349698384756    0.6279944577722286 Se
   0.1124062555572413    0.6187667610885365    0.8844181524077341 Se
   0.8710059876593833    0.8762246396584856    0.3776754962294980 Se
   0.8737402064336708    0.6236193812754957    0.6216839584613520 Se
   0.6328451741246213    0.3671194892286419    0.1330835667654153 Se
   0.6340670124834246    0.6369413322815446    0.8653955288808763 Se
   0.8676971293738088    0.3689991607637915    0.3685315967636453 Se
