Mg7 Sc16 Se32
1.0
  11.1003847944368736    0.0000000000000000    0.0000000000000000
   0.0000000000000000   11.1003847944368736    0.0000000000000000
  -0.0000000000000000   -0.0000000000000000   11.1003847944368736
Mg Sc Se
7 16 32
direct
   0.5007211897587878    0.9971300748817252    0.5040276283434267 Mg
   0.2486905661219386    0.7499285429974866    0.7493415378901508 Mg
   0.4956071335217176    0.4990283866237045    0.0007352649686139 Mg
   0.7499805552398315    0.2536189383165016    0.7554760053428675 Mg
   0.0329532332483299    0.0331554621712231    0.0409776578429851 Mg
   0.7500747582223758    0.7509673147078747    0.2491111016700662 Mg
   0.0006476569028366    0.5002861531156724    0.5007123686246671 Mg
   0.1260893475119697    0.8757407055413738    0.3729411780631356 Sc
   0.3744284410567077    0.1270359775962601    0.8762151267108923 Sc
   0.3736264621663484    0.3749174168520420    0.6289573893775243 Sc
   0.1250330153062260    0.1244802323390597    0.6253374830654723 Sc
   0.1290862579202100    0.3709056489048845    0.8772471277036432 Sc
   0.3761655116759737    0.6209354457668842    0.3784307986548160 Sc
   0.3715687287218097    0.8754449356534155    0.1212535642170167 Sc
   0.1206722255609611    0.6241757332346095    0.1239190440140402 Sc
   0.6258856010659583    0.8751584615917539    0.8754325733015901 Sc
   0.8778992015228684    0.1248918304951655    0.3727879353575974 Sc
   0.8769955299140496    0.3741589357810257    0.1264516192767381 Sc
   0.6296305032524940    0.1230691582108724    0.1260448163831926 Sc
   0.6250371968189919    0.3751140354629853    0.3749745310557723 Sc
   0.8794229262144612    0.6293906323411569    0.8726806054095593 Sc
   0.8752092330059966    0.8750733263033319    0.6249897447972915 Sc
   0.6255524628470485    0.6247601731627093    0.6247915623097452 Sc
   0.3827085546860642    0.1158554442453511    0.1169792430231582 Se
   0.6188702334476839    0.3796959095330645    0.6167170849325225 Se
   0.6137472751211035    0.1186854181471087    0.8841858773172125 Se
   0.3819051553157277    0.3842592906753603    0.3839968192724548 Se
   0.3670632131821787    0.1328230729521591    0.6328711313634493 Se
   0.1287847696217560    0.8691378308592708    0.1284450750513451 Se
   0.1368597797714115    0.1307895806956192    0.8712175640061020 Se
   0.3654315293347201    0.8674801185072718    0.3665501291894651 Se
   0.3870257325258958    0.6169734244751210    0.6141448698987287 Se
   0.6162163632341533    0.8806226790962784    0.1170497283594752 Se
   0.6170855153281647    0.6178273007294151    0.3836295200774261 Se
   0.3802329105076089    0.8852220836699309    0.8864606117759501 Se
   0.3648562432318138    0.6289928502658670    0.1361807732308031 Se
   0.1316545932438937    0.3670743996119943    0.6304222967541071 Se
   0.1363489941127589    0.6363138736196525    0.3689171837145160 Se
   0.3671795458314108    0.3671404886374711    0.8671403792218536 Se
   0.8832998840272420    0.1194650873841836    0.6185586792144747 Se
   0.1152474478473029    0.3808635143151315    0.1192340074073349 Se
   0.1190980312691620    0.1164464704303943    0.3834395942029885 Se
   0.8831619002600986    0.3821932434242214    0.8825422208695852 Se
   0.8704732501847645    0.1324414621026965    0.1333447627201935 Se
   0.6323454189083928    0.8688922607622521    0.6316159889905089 Se
   0.6325551863324460    0.1326443503532217    0.3679208915451669 Se
   0.8667059559059158    0.8659962632778999    0.8660575177665394 Se
   0.8800193965254293    0.6157639054578299    0.1185927626945829 Se
   0.1170479637043612    0.8830211725169962    0.6174899964657788 Se
   0.1170128630158518    0.6169638176630090    0.8828322450406353 Se
   0.8823453806760029    0.8824982019814288    0.3816385817971341 Se
   0.8703717060625348    0.6306342725448035    0.6317157212232122 Se
   0.6319943617027139    0.3630889262684834    0.1280572463071080 Se
   0.6293558684061518    0.6314218398376674    0.8683571448589531 Se
   0.8630173336996606    0.3657964980083148    0.3619787617167042 Se
