Mg7 Sc16 Se32
1.0
  11.1003847944368736    0.0000000000000000    0.0000000000000000
   0.0000000000000000   11.1003847944368736    0.0000000000000000
  -0.0000000000000000   -0.0000000000000000   11.1003847944368736
Mg Sc Se
7 16 32
direct
   0.4984933151021749    0.0003772337567540    0.4992198813323360 Mg
   0.2522516856894490    0.7505471244643855    0.7524711799287847 Mg
   0.5030284220664416    0.4987109361998384    0.0005471919163765 Mg
   0.7514109980317017    0.2491417781107404    0.7463760468735846 Mg
   0.1188636218194876    0.1764606125015785    0.1629488181913994 Mg
   0.7496540350914827    0.7503836368501293    0.2496031768461271 Mg
   0.9995701336341084    0.4992578634372483    0.5005108075547023 Mg
   0.1252333609177894    0.8744545419008435    0.3730686212098651 Sc
   0.3753104702600061    0.1245637389588735    0.8750171861002709 Sc
   0.3721613548600771    0.3746372114392012    0.6244992596291556 Sc
   0.1245146019532212    0.1251692435058596    0.6247033444150996 Sc
   0.1259163231566078    0.3759766389782378    0.8780262067379334 Sc
   0.3714618703959974    0.6240668867827087    0.3776113493233467 Sc
   0.3750071628258037    0.8749989708838528    0.1250057724422874 Sc
   0.1287047755093869    0.6237952007883173    0.1239322711055051 Sc
   0.6248690487412458    0.8750559451825296    0.8752617746849064 Sc
   0.8750666429119328    0.1248170603105760    0.3754481491798778 Sc
   0.8749690269767941    0.3753254107164773    0.1248521296392838 Sc
   0.6274766884276648    0.1260466317903299    0.1243210831074288 Sc
   0.6244258061217929    0.3729827583635967    0.3751137558071187 Sc
   0.8748993693868584    0.6250305297624431    0.8750702441581486 Sc
   0.8746525602044427    0.8762689569263852    0.6253624668711686 Sc
   0.6254038784587532    0.6266181747746615    0.6270801502435353 Sc
   0.3814193039251821    0.1166856834071673    0.1201853535721747 Se
   0.6178823462705458    0.3807750454598460    0.6173242483065065 Se
   0.6168840668784665    0.1148502429820618    0.8835100344210222 Se
   0.3840207446218302    0.3816736200870782    0.3822741693017465 Se
   0.3692179959746684    0.1314595162151213    0.6320822484172627 Se
   0.1329045318860111    0.8672378832422148    0.1321173821504862 Se
   0.1323556859575724    0.1323706501392219    0.8673264130452671 Se
   0.3689904800601048    0.8672503505748798    0.3668600232554290 Se
   0.3818630007182595    0.6170132818609974    0.6172012798421715 Se
   0.6150112369049356    0.8817918849161378    0.1161236781631164 Se
   0.6171754124274382    0.6174441597050395    0.3828096522634760 Se
   0.3829014309320856    0.8829798240360799    0.8832077820023210 Se
   0.3663031535111059    0.6336165324945293    0.1324002950197505 Se
   0.1326741756902580    0.3671304276859374    0.6288549690035454 Se
   0.1337550228910564    0.6311100117974232    0.3668096593340378 Se
   0.3666091510216580    0.3663407419800377    0.8671056208087722 Se
   0.8833271518058901    0.1173142999678048    0.6173007446306553 Se
   0.1173689361043839    0.3804548384477159    0.1168735995490667 Se
   0.1157128148556590    0.1176437429029202    0.3859333683532441 Se
   0.8820160539235595    0.3850487016878327    0.8853195859073871 Se
   0.8671384226280989    0.1326335910251165    0.1332146630968042 Se
   0.6339517183614144    0.8662323582404206    0.6312070339582090 Se
   0.6324850424125509    0.1334140705771492    0.3697338009270402 Se
   0.8644739700103350    0.8642442870686083    0.8653496805065782 Se
   0.8825676278873282    0.6196954372808918    0.1178582341562185 Se
   0.1179104506303307    0.8864721758681863    0.6150379842171270 Se
   0.1203033078194582    0.6159827868362840    0.8827125451223671 Se
   0.8817311318274116    0.8825755747174536    0.3839263608649972 Se
   0.8691079897735874    0.6336007712357981    0.6335960592296118 Se
   0.6337547334944698    0.3667063428574036    0.1315867518741869 Se
   0.6347203794625759    0.6300679898622670    0.8669773572708832 Se
   0.8672639852125207    0.3672954121959337    0.3674094061800041 Se
