Mg7 Sc16 Se32
1.0
  11.1003847944368736    0.0000000000000000    0.0000000000000000
   0.0000000000000000   11.1003847944368736    0.0000000000000000
  -0.0000000000000000   -0.0000000000000000   11.1003847944368736
Mg Sc Se
7 16 32
direct
   0.5145709873514080    0.0088134914855184    0.5072945329482208 Mg
   0.2487120031349537    0.7493502499697161    0.7526977342052800 Mg
   0.5039475468001444    0.4963502659303612    0.9925648076580739 Mg
   0.7596578514174901    0.2484840719099623    0.7515238946850473 Mg
   0.0045687273814103    0.9976094852130346    0.0005224659458471 Mg
   0.7500749849658777    0.7526862180446263    0.2516058164037061 Mg
   0.0611213160583518    0.4102995900851987    0.3800470121276091 Mg
   0.1311971191950945    0.8633710997714220    0.3709557334364796 Sc
   0.3709007065098535    0.1179703424591534    0.8681644370219250 Sc
   0.3804579809249833    0.3740672160465160    0.6280760258242746 Sc
   0.1269386168306293    0.1237949851234916    0.6219565593752030 Sc
   0.1110472879767219    0.3971470466933477    0.8742421763027587 Sc
   0.3794276607535291    0.6155974955337712    0.3824261844878445 Sc
   0.3771424965559510    0.8799980704895490    0.1262517088351181 Sc
   0.1300153900210811    0.6334070940332117    0.1176346758965517 Sc
   0.6267863837428655    0.8736503940791247    0.8658790602091510 Sc
   0.8667147508680161    0.1300418888638661    0.3662232711110394 Sc
   0.8721272886841306    0.3697495214461954    0.1335052887408538 Sc
   0.6251419677173580    0.1388451156584277    0.1196911186759542 Sc
   0.6270404041597012    0.3581839547131642    0.3898465711322935 Sc
   0.8749534830993396    0.6250883749574077    0.8749662935307673 Sc
   0.8767623066827721    0.8805816241733221    0.6289798191191514 Sc
   0.6292396048879461    0.6055490850920364    0.6220217423788753 Sc
   0.3791908670756010    0.1175069076559846    0.1163466959300665 Se
   0.6194303253869063    0.3816770957112927    0.6212253954911506 Se
   0.6285929550049186    0.1195879017743496    0.8960757529411899 Se
   0.3755090095293617    0.4039679850882517    0.3947370789641492 Se
   0.3666467171688064    0.1345082939518006    0.6315338437369387 Se
   0.1335147895573011    0.8601578228088199    0.1438248477048242 Se
   0.1197575769153343    0.1417609116753836    0.8666611340005941 Se
   0.3880312527681183    0.8784898872006033    0.3677155210174561 Se
   0.3916382875014766    0.6181956429420900    0.6214796502605490 Se
   0.6182061353408806    0.8854886694218792    0.1235213830743950 Se
   0.6163873273120835    0.6207253338132852    0.3830166673994495 Se
   0.3986090015203249    0.8746959459603554    0.8918141832954426 Se
   0.3671033052230418    0.6288493092479196    0.1341497614290020 Se
   0.1310252627168963    0.3701945918971532    0.6236219358130345 Se
   0.1330130729654674    0.6330170626191749    0.3662602804570600 Se
   0.3661832044920620    0.3646854306261583    0.8697445361902914 Se
   0.8769941950763422    0.1159420565859011    0.6276832286230869 Se
   0.0938398470017062    0.3795971245197107    0.1261678555192343 Se
   0.1123108962262167    0.1135392303740369    0.3965655702639466 Se
   0.8892456037511187    0.3867894518393593    0.8937830938756539 Se
   0.8671974023646286    0.1323476051321983    0.1321480332765337 Se
   0.6366728504469572    0.8786068102472938    0.6263672085476069 Se
   0.6341092082081795    0.1289581546889817    0.3582979274654223 Se
   0.8648090410808916    0.8823229143180817    0.8490740945870984 Se
   0.8765377539607444    0.6102627440919641    0.1177783300526526 Se
   0.1388791352027207    0.8856892963854474    0.6017955698576298 Se
   0.1185397052515974    0.6052535814739073    0.8840587390913210 Se
   0.8689068094143909    0.8756530090312959    0.3656916083273611 Se
   0.8659861470895023    0.6314248252943494    0.6284928675904389 Se
   0.6462274467798358    0.3676433184205785    0.1490851905520579 Se
   0.6328660900999434    0.6329409493372783    0.8674039390683266 Se
   0.8654052197032546    0.3727717040911818    0.3498013477379852 Se
