Mg7 Sc16 Se32
1.0
  11.1003847944368736    0.0000000000000000    0.0000000000000000
   0.0000000000000000   11.1003847944368736    0.0000000000000000
  -0.0000000000000000   -0.0000000000000000   11.1003847944368736
Mg Sc Se
7 16 32
direct
   0.2840308653944944    0.2188266925614174    0.2950720758809676 Mg
   0.2535651203900919    0.7505527795431216    0.7477802840155899 Mg
   0.4901602606098193    0.5060249451676747    0.0112797226232799 Mg
   0.7438707429342344    0.2553405742720259    0.7461269771791826 Mg
   0.9998274501249372    0.0006454783817378    0.9993969299740595 Mg
   0.7497680607177029    0.7494016185829807    0.2506136488682284 Mg
   0.9995603310592814    0.4955219640222716    0.5056497837240803 Mg
   0.1179958032960808    0.8640936309980835    0.3595290331927030 Sc
   0.3769754991451590    0.1383181817737668    0.8814412008339724 Sc
   0.3652125582423952    0.3712445042402794    0.6320966421811085 Sc
   0.1201074735567389    0.1305529613419405    0.6104754063618950 Sc
   0.1274715424059283    0.3570445351704028    0.8773273173785429 Sc
   0.3916792510630898    0.6214128641903480    0.3762298634939452 Sc
   0.3840375530249768    0.8686573636891234    0.1281743229587650 Sc
   0.1282936955263027    0.6319592246351811    0.1133544906272317 Sc
   0.6267416516217321    0.8773868146065978    0.8743769606427092 Sc
   0.8748148121253007    0.1265558890690918    0.3750042471754948 Sc
   0.8718802496188180    0.3684925933927103    0.1158994822542669 Sc
   0.6300291042826390    0.1209845310672487    0.1384218933857220 Sc
   0.6228294948552006    0.3825582533922275    0.3803248450835711 Sc
   0.8724203850646524    0.6177890608590579    0.8773035452318295 Sc
   0.8771417031101435    0.8753970638594197    0.6274503491204586 Sc
   0.6374809097164994    0.6304148335881108    0.6155766399135099 Sc
   0.3773636724603656    0.1134535249448262    0.1092925251548728 Se
   0.6244988561646952    0.3974784963466407    0.6103996205829624 Se
   0.6230283494450969    0.1145104198378008    0.8865675656288753 Se
   0.3863739044546875    0.3819775569286957    0.3792614207945576 Se
   0.3644734310180874    0.1268038898299088    0.6243551173288481 Se
   0.1300712767698048    0.8481106274475002    0.1366581276090354 Se
   0.1328326702562267    0.1328898227371663    0.8671497214680356 Se
   0.3556214527266565    0.8617157743198993    0.3717403102560257 Se
   0.3910069830012983    0.6126697652811709    0.6116573032370745 Se
   0.6157489188406068    0.8808438155124323    0.1136177005666843 Se
   0.6222723721873754    0.6331248011966106    0.3729135306278688 Se
   0.3820870412881039    0.8815003226271745    0.8786661138764946 Se
   0.3547906911592241    0.6230809044958381    0.1200992455002440 Se
   0.1229910613072106    0.3649529265861317    0.6487099170993759 Se
   0.1342391501653548    0.6354369929606244    0.3645311164446960 Se
   0.3665394026520031    0.3631241621568677    0.8686167586146691 Se
   0.8822819847243878    0.1120838383657380    0.6078676939376827 Se
   0.1067751244294081    0.3712393103692777    0.1149122121692185 Se
   0.1112804577871404    0.1186882000852545    0.3825833527157081 Se
   0.8817917214103698    0.3799426518124491    0.8786680329702897 Se
   0.8587343782371525    0.1370512678292602    0.1204219968749454 Se
   0.6440488584002773    0.8561050862740358    0.6382184117156572 Se
   0.6367618592586732    0.1299472403717350    0.3681147424702288 Se
   0.8601809702868812    0.8663035455961798    0.8836382130511177 Se
   0.8864996842027308    0.6045548718665258    0.1049418404928723 Se
   0.1080539767980862    0.8916136246028449    0.6131424911764388 Se
   0.1201399429383020    0.6208910842456441    0.8750590485886683 Se
   0.8706948016871316    0.8740415794155764    0.3734611147394333 Se
   0.8684478649044103    0.6310934785980488    0.6344061432313920 Se
   0.6367335516276461    0.3719609303783880    0.1337745499934756 Se
   0.6317746858040172    0.6316440903610689    0.8722643277733397 Se
   0.8663005678299569    0.3687279804240350    0.3616307485581274 Se
