Mg7 Sc16 Se32
1.0
  11.1003847944368736    0.0000000000000000    0.0000000000000000
   0.0000000000000000   11.1003847944368736    0.0000000000000000
  -0.0000000000000000   -0.0000000000000000   11.1003847944368736
Mg Sc Se
7 16 32
direct
   0.4922146000381105    0.9989682877336367    0.4834391129908680 Mg
   0.2549299781014763    0.7464756198780870    0.7363633915435752 Mg
   0.5000532391661375    0.4984014118254597    0.0003333584196699 Mg
   0.7597726362791338    0.2470967103746682    0.7413150851903777 Mg
   0.1409441347769708    0.1348189927173349    0.1592958052321097 Mg
   0.7524687899378046    0.7496395171270567    0.2528911331177776 Mg
   0.9956919294806807    0.4956553257886641    0.4977755975778421 Mg
   0.1282020219159753    0.8800762811731507    0.3715458221908534 Sc
   0.3755974744862658    0.1380991181320874    0.8795458998479116 Sc
   0.3801178818776512    0.3770395750680068    0.6288299560987159 Sc
   0.1319121757425780    0.1222215788548020    0.6205681918184407 Sc
   0.1141466465947486    0.3781341365880752    0.8780166795909196 Sc
   0.3673739095276177    0.6266225901400351    0.3631088755009154 Sc
   0.3717457161291138    0.8788349378244823    0.1218348416932113 Sc
   0.1425525383332984    0.6270592755171354    0.1253332201193269 Sc
   0.6250909373746562    0.8750178581806863    0.8750419845679133 Sc
   0.8812298750745980    0.1193884657105033    0.3661469761193954 Sc
   0.8751051911251034    0.3748540731000553    0.1252437304874822 Sc
   0.6233482727926720    0.1219729939785459    0.1330828102503589 Sc
   0.6369851766582174    0.3742758455176824    0.3604608224796351 Sc
   0.8789448043401373    0.6313697743914363    0.8746309333901141 Sc
   0.8747174534063825    0.8757173263163146    0.6242604770885565 Sc
   0.6328746244117559    0.6277618706662922    0.6325082147959662 Sc
   0.3825354163866421    0.1174356458577062    0.1171917159141216 Se
   0.6104989260843264    0.3832627033864681    0.6127846969655708 Se
   0.6168652820581116    0.1171954048648754    0.8828025446916932 Se
   0.3977917982220907    0.3874742495037499    0.3823828222438526 Se
   0.3688665344317772    0.1259472483641277    0.6392134862021287 Se
   0.1245031951147493    0.8717234204407230    0.1363974549606531 Se
   0.1384365605128110    0.1322978770542758    0.8656114041091491 Se
   0.3694167283904845    0.8674757478117516    0.3648799062653322 Se
   0.3947509309380417    0.6337400529086925    0.6153590778677288 Se
   0.6161935089857513    0.8847139565915006    0.1143506562379961 Se
   0.6186997545056985    0.6240466102632118    0.3760537817959352 Se
   0.3775506815578726    0.8719984512417146    0.8835970147026562 Se
   0.3699349226420079    0.6308542669847006    0.1419785053862258 Se
   0.1465276865655971    0.3705674194217414    0.6228546055489882 Se
   0.1314962652291856    0.6277522525752455    0.3651233317761396 Se
   0.3753301701495464    0.3737835475172563    0.8650764217350385 Se
   0.8736729207759856    0.1156788251937703    0.6048398368313271 Se
   0.1123581299434522    0.3887561953480316    0.1263034723748606 Se
   0.1265597382455966    0.1107756116277054    0.3840781301031393 Se
   0.9009888555230458    0.3897166667530485    0.8814086329659767 Se
   0.8599687069275478    0.1353139541530230    0.1282826619129183 Se
   0.6400766223614326    0.8679935958440214    0.6280988375821497 Se
   0.6384102920355663    0.1245753566048504    0.3680827424419222 Se
   0.8758231799556387    0.8790943563358448    0.8587467201057333 Se
   0.8947817629858342    0.6066288922050806    0.1127905743540695 Se
   0.1236654467970851    0.8971028686417859    0.6096600674599090 Se
   0.1312022575721488    0.6188195611838214    0.8698415332804851 Se
   0.8789138197539654    0.8822043915006064    0.3795554159219744 Se
   0.8698533487572152    0.6401618094274477    0.6340530371416124 Se
   0.6317826045287759    0.3822757741483371    0.1307298322013077 Se
   0.6399632322000200    0.6348342379106856    0.8731110938451123 Se
   0.8581068654397717    0.3728578663695781    0.3741483946168158 Se
