Mg7 Sc16 Se32
1.0
  11.1003847944368736    0.0000000000000000    0.0000000000000000
   0.0000000000000000   11.1003847944368736    0.0000000000000000
  -0.0000000000000000   -0.0000000000000000   11.1003847944368736
Mg Sc Se
7 16 32
direct
   0.5016023636323957    0.9952617737820740    0.5068521722359663 Mg
   0.2090808265203762    0.5698463231099256    0.5345621455779977 Mg
   0.5078931601305872    0.5126232010015840    0.9922094498729377 Mg
   0.7547326035888973    0.2474517479291288    0.7474154755147892 Mg
   0.0087905802661796    0.9906585962319745    0.9982057812379433 Mg
   0.7495913539217242    0.7488402023956956    0.2630801106943205 Mg
   0.0012413886249620    0.5013066363604275    0.4966445302425190 Mg
   0.1252378884043066    0.8607783797614995    0.3749236436522763 Sc
   0.3737098758439148    0.1245158704672712    0.8726783145983329 Sc
   0.3740307236194817    0.3757968323883600    0.6242443888781155 Sc
   0.1199995606903128    0.1216039239768754    0.6223837234721584 Sc
   0.1211012952969057    0.3669867701668300    0.8669971666437140 Sc
   0.3759374924881432    0.6255124067314513    0.3743738489014803 Sc
   0.3718510798302548    0.8713996080078491    0.1245246097497109 Sc
   0.1259241703977734    0.6250809350190867    0.1244616720432863 Sc
   0.6252637532794549    0.8757937752489591    0.8776688389791570 Sc
   0.8757496750717325    0.1330458236719155    0.3800247915095360 Sc
   0.8665297609954036    0.3684361590841185    0.1209946897381069 Sc
   0.6246509573189605    0.1248591257336613    0.1250752187632380 Sc
   0.6225576029187457    0.3749901486499099    0.3835271497141591 Sc
   0.8784766441849157    0.6229069246037290    0.8718891819421771 Sc
   0.8765023922173093    0.8769325794141525    0.6336338932754347 Sc
   0.6183045479222155    0.6207063552991494    0.6265748098608250 Sc
   0.3899984203739423    0.1242137985316575    0.1157196827539808 Se
   0.6182934773249067    0.3794305067360371    0.6102741525525870 Se
   0.6140972759469479    0.1202923922245783    0.8765512949768833 Se
   0.3921475756539601    0.3784757218658747    0.3845573971972542 Se
   0.3660810019232861    0.1394631200779756    0.6274254270760909 Se
   0.1422612615751330    0.8693552261087719    0.1269787540721887 Se
   0.1236067893461418    0.1346067649255877    0.8801564628851180 Se
   0.3642753400348540    0.8675318872287315    0.3670404097051704 Se
   0.3797330854501818    0.6154198913236796    0.6283112616326206 Se
   0.6182958517827434    0.8780489952401122    0.1212796274346018 Se
   0.6134680493754555    0.6188482251246733    0.3795695735091186 Se
   0.3892270003407632    0.8830681687421852    0.8834571008086002 Se
   0.3652422363672807    0.6299607839820580    0.1335369174536486 Se
   0.1296180009610341    0.3608386415293203    0.6211144093387857 Se
   0.1250707672516669    0.6450263798721930    0.3698529832485241 Se
   0.3678623250857214    0.3669043315622028    0.8666891778056773 Se
   0.8853868543354292    0.1051064401740896    0.6283866603174232 Se
   0.1259838868020323    0.3759747328879544    0.1136172476845570 Se
   0.1197787319997242    0.1273862059780613    0.3868283239493471 Se
   0.8851117390427110    0.3812592033431698    0.8875866335510101 Se
   0.8756281150027541    0.1359838949680175    0.1354846140963359 Se
   0.6425373922853168    0.8602446256739407    0.6435523633821796 Se
   0.6318164525656704    0.1316127486286089    0.3644673852552561 Se
   0.8669605116470321    0.8591571737027256    0.8695006067204396 Se
   0.8754584593939196    0.6073682073289676    0.1179442834014716 Se
   0.1165640669108487    0.8835728942964501    0.6151288855935032 Se
   0.1149941898989690    0.6214889181587427    0.8669175647752145 Se
   0.8779549952628549    0.8915434501819117    0.3836084687016212 Se
   0.8665916827002444    0.6326930602919144    0.6328561143158973 Se
   0.6290712730319188    0.3700446738468547    0.1347948724329439 Se
   0.6372401777076487    0.6350075516606658    0.8758651643866702 Se
   0.8683195665464759    0.3659999658016661    0.3695736867409470 Se
