Mg7 Sc16 Se32
1.0
  11.1003847944368736    0.0000000000000000    0.0000000000000000
   0.0000000000000000   11.1003847944368736    0.0000000000000000
  -0.0000000000000000   -0.0000000000000000   11.1003847944368736
Mg Sc Se
7 16 32
direct
   0.5011912415040997    0.9999784207142336    0.5006054636475236 Mg
   0.2490994893900634    0.7482682068038032    0.7516190531911928 Mg
   0.4995605635000150    0.5000298080961435    0.9993900507998426 Mg
   0.7509846860735565    0.2484787603438930    0.7498962756575683 Mg
   0.9994222433389842    0.9997922134427857    0.0003054482725772 Mg
   0.7499313324389553    0.7496646814316476    0.2516561375917332 Mg
   0.1268416879784946    0.3464606042072210    0.2987625724003325 Mg
   0.1269174444942449    0.8774427941994365    0.3726665132451004 Sc
   0.3752299864632567    0.1262558142498819    0.8759735587549239 Sc
   0.3731804649066740    0.3767508296153166    0.6222604957749943 Sc
   0.1254554388567707    0.1221434990862673    0.6255409983648234 Sc
   0.1249880568272122    0.3752583072673464    0.8749182666214386 Sc
   0.3766427286479908    0.6243374749821362    0.3745097077653006 Sc
   0.3740849456106408    0.8739227235448273    0.1283391054990457 Sc
   0.1240182225794589    0.6223140039001963    0.1217091746813303 Sc
   0.6253754252725660    0.8747370276534180    0.8747462665246470 Sc
   0.8723326133659050    0.1237583266716978    0.3753896523587772 Sc
   0.8755459371427462    0.3757180377691656    0.1255088591690087 Sc
   0.6258996809370772    0.1230080140522102    0.1242965534397577 Sc
   0.6271446315627685    0.3737482259315034    0.3743111632986295 Sc
   0.8736203547582138    0.6251239905702640    0.8766302072982076 Sc
   0.8774425132136112    0.8766545282561190    0.6276996428363996 Sc
   0.6268197960433893    0.6278644492807648    0.6259876862660841 Sc
   0.3830426570571185    0.1138864515155472    0.1148277773245762 Se
   0.6177953551880746    0.3845925210623268    0.6169340231895201 Se
   0.6153457940772897    0.1175772918524414    0.8843751978819168 Se
   0.3814782797336987    0.3837537563587744    0.3802054554992169 Se
   0.3671470573461050    0.1325364474487074    0.6332298131001272 Se
   0.1341716233988258    0.8680614730140431    0.1324004991624699 Se
   0.1348049765492158    0.1333229451189265    0.8681799534688733 Se
   0.3693101619597779    0.8656753519632563    0.3648098188778164 Se
   0.3813620489588495    0.6196325630439364    0.6201398662732069 Se
   0.6169748619990870    0.8834009961523218    0.1157588281363966 Se
   0.6174877033039560    0.6178844092388636    0.3800621238717128 Se
   0.3833384263936729    0.8834187501159009    0.8830260367159790 Se
   0.3663741308391307    0.6332305336816465    0.1334786515107272 Se
   0.1327821901665982    0.3671900503719483    0.6329810903562499 Se
   0.1348717267273206    0.6328785408632733    0.3667901730375570 Se
   0.3674194468301015    0.3677749546222321    0.8669571911939679 Se
   0.8827904372555567    0.1161689751172264    0.6179817287048611 Se
   0.1172410461436912    0.3857874007069725    0.1166308666092259 Se
   0.1135112632199700    0.1181695942314112    0.3814780430194322 Se
   0.8814866179218539    0.3816913990417134    0.8817491377387124 Se
   0.8669821434723701    0.1331420388078073    0.1328424261530473 Se
   0.6369214832742569    0.8677814512731359    0.6321361898499970 Se
   0.6339841865092736    0.1330356786768561    0.3679747674826208 Se
   0.8645630996908743    0.8664242709209325    0.8652316345834155 Se
   0.8834650962689395    0.6161916442475588    0.1160272066249763 Se
   0.1159154914095921    0.8795830789794518    0.6170565353331413 Se
   0.1163976061071451    0.6168694753152413    0.8837022553963774 Se
   0.8816251825297882    0.8869304912384812    0.3843696865277744 Se
   0.8671434343026238    0.6334736934941079    0.6351476278863838 Se
   0.6347033210157447    0.3673695577258941    0.1337648652896693 Se
   0.6330634531370857    0.6290242369374636    0.8677869364222972 Se
   0.8662536810982192    0.3676712878722252    0.3674389755360711 Se
