Mg7 Sc16 Se32
1.0
  11.1003847944368736    0.0000000000000000    0.0000000000000000
   0.0000000000000000   11.1003847944368736    0.0000000000000000
  -0.0000000000000000   -0.0000000000000000   11.1003847944368736
Mg Sc Se
7 16 32
direct
   0.1668097562625201    0.2965832559230624    0.2082145155213346 Mg
   0.2488605670848665    0.7494140403911115    0.7471608904709147 Mg
   0.4997785354292224    0.4980131533543780    0.0002165234760694 Mg
   0.7495760689839556    0.2495219885992073    0.7527042693271290 Mg
   0.0050279700777377    0.0044592085113689    0.9963572121180678 Mg
   0.7482582126736803    0.7530984553855880    0.2485533123259884 Mg
   0.0017873378183853    0.4997816615097217    0.4999827008094050 Mg
   0.1295161653590764    0.8780523348507945    0.3757166522918166 Sc
   0.3725371495734164    0.1304956256992620    0.8716203627315960 Sc
   0.3737929819397443    0.3700283446907797    0.6225754348348516 Sc
   0.1248019939590829    0.1198081708562112    0.6236415873935643 Sc
   0.1256049328107967    0.3765073974791076    0.8763174667322347 Sc
   0.3744449711262776    0.6218660924975395    0.3732909774035433 Sc
   0.3749178744469515    0.8751308071332990    0.1251329106109314 Sc
   0.1251989740332969    0.6251979719648125    0.1248232487649383 Sc
   0.6223791416125565    0.8736841152988429    0.8761480516105865 Sc
   0.8732634594554272    0.1212022599662306    0.3768662298606266 Sc
   0.8738899746738851    0.3789987099977473    0.1250799984420849 Sc
   0.6320263738656663    0.1281230174760085    0.1249245228645698 Sc
   0.6269862742125470    0.3797643836475607    0.3774504569083586 Sc
   0.8765984946538424    0.6232687678239252    0.8724511836211163 Sc
   0.8735536664422781    0.8742607256742390    0.6238758147428907 Sc
   0.6258414100952602    0.6282599998155123    0.6248609824378561 Sc
   0.3784326488873069    0.1201776980775722    0.1146143854813028 Se
   0.6167078213955167    0.3829135703456235    0.6160718945464986 Se
   0.6171095843630403    0.1172475566412421    0.8830590809829868 Se
   0.3890286534042675    0.3798516857090826    0.3818949502693559 Se
   0.3678211984798927    0.1325865547933634    0.6302861132513787 Se
   0.1309902473367214    0.8673884840413737    0.1306097662292895 Se
   0.1298170825847136    0.1351726253194100    0.8737810217412653 Se
   0.3661468270239786    0.8731188727735121    0.3704065281440689 Se
   0.3811727950014732    0.6149886931185189    0.6177246938564593 Se
   0.6186057048417323    0.8833927169964295    0.1206277722866592 Se
   0.6117611706885593    0.6164414878714793    0.3813608777031855 Se
   0.3839521480859516    0.8836588794381576    0.8807254630208573 Se
   0.3668842450888950    0.6324338077167656    0.1329408046215210 Se
   0.1327401771343019    0.3667055642289436    0.6329106689501435 Se
   0.1328709621750363    0.6317755553776037    0.3637801311952159 Se
   0.3685581393143161    0.3676186300382487    0.8684695766577272 Se
   0.8828931431903141    0.1180061801384458    0.6145092338596196 Se
   0.1175241211312171    0.3847801457928917    0.1174249416341980 Se
   0.1153183028708813    0.1148896642508026    0.3885371162676524 Se
   0.8844796443098973    0.3852908821324545    0.8797386149066924 Se
   0.8647866640883669    0.1391151676506267    0.1290770366441226 Se
   0.6326462760334007    0.8691689060665192    0.6331997540356867 Se
   0.6340270230409731    0.1324290628817950    0.3661032055210680 Se
   0.8670820667040433    0.8674946252835574    0.8669054004736046 Se
   0.8828724328122575    0.6171110276965063    0.1171406256016075 Se
   0.1177226059259365    0.8835796058263935    0.6181665227723434 Se
   0.1158609016400455    0.6136272819571800    0.8824067173837246 Se
   0.8839468076676438    0.8861449697183231    0.3878020778839338 Se
   0.8675596991131201    0.6252721027187653    0.6324835247409680 Se
   0.6330100797350536    0.3672106007122585    0.1329361488750563 Se
   0.6345466546207345    0.6300157560753425    0.8636800374145557 Se
   0.8670287673739187    0.3671587205628870    0.3673102209070593 Se
