Mg7 Sc16 Se32
1.0
  11.1003847944368736    0.0000000000000000    0.0000000000000000
   0.0000000000000000   11.1003847944368736    0.0000000000000000
  -0.0000000000000000   -0.0000000000000000   11.1003847944368736
Mg Sc Se
7 16 32
direct
   0.4961393152552594    0.0046008291819877    0.4949399555554291 Mg
   0.2065344515146512    0.1988780784604270    0.1829902576400132 Mg
   0.5037913026206510    0.5125652528295500    0.9984309343290335 Mg
   0.7512372929104784    0.2485349302873608    0.7508893170321810 Mg
   0.9953531867743236    0.9981398129529261    0.0010880792469981 Mg
   0.7495396471785002    0.7519883291668679    0.2527915333155090 Mg
   0.0036846480906143    0.4892599379974725    0.4977956847052417 Mg
   0.1221762689351857    0.8742197888775415    0.3787763152953061 Sc
   0.3730719875312220    0.1249134511468457    0.8757807693522153 Sc
   0.3778446925196295    0.3729812057526149    0.6281761372188401 Sc
   0.1118605226219949    0.1064157938796564    0.6200109184403613 Sc
   0.1126843524502462    0.3776587660388762    0.8585284035414760 Sc
   0.3767353344488215    0.6287467183271170    0.3697944943044352 Sc
   0.3778767797310071    0.8796012161374884    0.1310124475471033 Sc
   0.1358166574852770    0.6260308120107667    0.1328549895078505 Sc
   0.6325932915941858    0.8781498244143603    0.8851857977047823 Sc
   0.8801795815274670    0.1295046721113962    0.3537337413203890 Sc
   0.8841871992816870    0.3774237115690121    0.1261489061154801 Sc
   0.6287412245131532    0.1252805310922769    0.1195948367371027 Sc
   0.6216096816723097    0.3657509933250260    0.3865463718982990 Sc
   0.8633444591640432    0.6179158873993905    0.8880127262446819 Sc
   0.8763037016382209    0.8719701476469097    0.6138822915443409 Sc
   0.6380879101623720    0.6121053932849115    0.6174317111448941 Sc
   0.3851896739690192    0.1208992576947668    0.1107361866142677 Se
   0.6255867091192343    0.3729048021593862    0.6135525510413864 Se
   0.6018697975920997    0.1236021136137579    0.8854776185929812 Se
   0.3765654488911987    0.3903922452043219    0.3943525284985830 Se
   0.3811836740442615    0.1433777206100192    0.6252393956215169 Se
   0.1410046452925727    0.8777879038027459    0.1410040564235245 Se
   0.1330162891024613    0.1327732756420472    0.8668356800536631 Se
   0.3814005977351647    0.8602354607252035    0.3627917850533048 Se
   0.3997355863508319    0.6054372323109469    0.6059910927502596 Se
   0.6167408032660809    0.8848438183310038    0.1110675717102719 Se
   0.6163566436527248    0.6221220928094596    0.3915877926328089 Se
   0.3721428182192203    0.8822037373581187    0.8990789266230633 Se
   0.3577062701912446    0.6132563305948517    0.1364725392515564 Se
   0.1134553380747187    0.3642215670257937    0.6317968300860159 Se
   0.1204368199415073    0.6334028046352499    0.3655942122528267 Se
   0.3722642125197517    0.3579562536318865    0.8537234184208408 Se
   0.8729429158087824    0.1281822273228018    0.6097553177399850 Se
   0.1283143784412679    0.3650842985698411    0.1275599023774192 Se
   0.1145882065777891    0.1113418649614281    0.3902120111485582 Se
   0.8812834437018441    0.3836001998491624    0.8818718875007232 Se
   0.8701328685250477    0.1265196575185585    0.1374103272771866 Se
   0.6485136357412119    0.8613496522563288    0.6446147042069237 Se
   0.6489813481481834    0.1320413549726410    0.3516418757691848 Se
   0.8607004260975512    0.8799819302903930    0.8729481429828312 Se
   0.8808217402530315    0.6223495587669343    0.1220515292188807 Se
   0.1187602599906544    0.8816888195114262    0.6187648145716803 Se
   0.1346683422818184    0.6055325535539583    0.8918333837493875 Se
   0.8915818213617319    0.8930076065953666    0.3719690405299751 Se
   0.8666949687751067    0.6458427821579894    0.6218125286998161 Se
   0.6267917422827174    0.3667136952705003    0.1203308739727778 Se
   0.6297545118831107    0.6478487008247048    0.8669519684522570 Se
   0.8610571816180428    0.3612434022337863    0.3700262627353154 Se
