Mg7 Sc16 Se32
1.0
  11.1003847944368736    0.0000000000000000    0.0000000000000000
   0.0000000000000000   11.1003847944368736    0.0000000000000000
  -0.0000000000000000   -0.0000000000000000   11.1003847944368736
Mg Sc Se
7 16 32
direct
   0.5009274122127022    0.9997603645179141    0.5011584292637830 Mg
   0.2518423045531515    0.7561499913684592    0.7431782671044445 Mg
   0.4921598262683138    0.4965443071254805    0.9966394261274293 Mg
   0.7535471332941045    0.2479583109027197    0.7492847234173989 Mg
   0.9969798577559597    0.9989214431010228    0.9978260443232748 Mg
   0.7563775194519439    0.7471833024848669    0.2488165451221038 Mg
   0.0078296643663679    0.5028121418062791    0.4979541557230180 Mg
   0.1278136186833187    0.8755452750805202    0.3704625516553683 Sc
   0.3746097825630420    0.1234325384980060    0.8753677238618317 Sc
   0.3714396982322662    0.3739371010545432    0.6234721320406850 Sc
   0.1241649463052835    0.1241893068150540    0.6256125228333028 Sc
   0.1166613150874834    0.3767547793967765    0.8762382870065674 Sc
   0.3752964028660652    0.6271617876493888    0.3747716917613138 Sc
   0.3776347194968401    0.8657140888423667    0.1202895484785275 Sc
   0.1260412052987314    0.6250490597292054    0.1244962590450229 Sc
   0.6254380096091277    0.8791398540517179    0.8781305226508067 Sc
   0.8719026697079270    0.1232847316206529    0.3736067365620835 Sc
   0.8693605584424193    0.3667454255110263    0.1195565737992914 Sc
   0.6281728760005132    0.1257202185371450    0.1230536367338498 Sc
   0.6258355713267880    0.3746790095063219    0.3723749723172524 Sc
   0.8746365230268198    0.6263009633576100    0.8726752376499893 Sc
   0.8749476893816260    0.8753929803251094    0.6246101310437414 Sc
   0.6137034277439616    0.6318850838945070    0.6272637748572627 Sc
   0.3818854103097514    0.1207355320948341    0.1057036394424092 Se
   0.6221593481662839    0.3936851813642681    0.6186558861513811 Se
   0.6148487006267118    0.1270795670657538    0.8888247568866499 Se
   0.3776169019193423    0.3809154499388547    0.3792554662761487 Se
   0.3577736492274979    0.1427536465540212    0.6307412268405276 Se
   0.1360770017858595    0.8574938203434737    0.1233523880883555 Se
   0.1300560286774856    0.1306571531334212    0.8536229419305479 Se
   0.3711387316266708    0.8579232843379292    0.3733396486113299 Se
   0.3830866637001862    0.6166837906146858    0.6174863675913889 Se
   0.6204305938313712    0.8855013414856184    0.1269876872725700 Se
   0.6136368864547281    0.6153328928166891    0.3768767681081135 Se
   0.3831078368140426    0.8858871717859794    0.8825435449980310 Se
   0.3616412865061731    0.6372415811968961    0.1342905818347070 Se
   0.1266548890797647    0.3690059112901765    0.6297940564913976 Se
   0.1345669818583768    0.6322983230679029    0.3673397522461067 Se
   0.3683596725665364    0.3726890430251017    0.8620037678010309 Se
   0.8914268119857608    0.1172201023808066    0.6129806450378461 Se
   0.1057363791627018    0.3834410852603898    0.1235366484142651 Se
   0.1240671736065437    0.1128953195748630    0.3757701480567727 Se
   0.8792366560567356    0.3807087184497990    0.8830450865554997 Se
   0.8599887693929099    0.1290448390332525    0.1273169276165893 Se
   0.6308851312822304    0.8738465664101025    0.6287553351319344 Se
   0.6379056266528745    0.1303181445962148    0.3766795094373579 Se
   0.8589023646907775    0.8677842633501006    0.8589611276388522 Se
   0.8827958373040469    0.6173336978737213    0.1167964626417772 Se
   0.1129721698667766    0.8828060704033690    0.6047468670693966 Se
   0.1120587032388425    0.6207572951771043    0.8867445964552321 Se
   0.8793189204533685    0.8816896601833317    0.3826223630320840 Se
   0.8612232703294784    0.6238130393407596    0.6403876419770601 Se
   0.6370091092096380    0.3756826392546676    0.1306134582152181 Se
   0.6291002169444133    0.6360773986501398    0.8749241715515359 Se
   0.8689780606531392    0.3601151289909681    0.3707823679350271 Se
