Mg7 Sc16 Se32
1.0
  11.1003847944368736    0.0000000000000000    0.0000000000000000
   0.0000000000000000   11.1003847944368736    0.0000000000000000
  -0.0000000000000000   -0.0000000000000000   11.1003847944368736
Mg Sc Se
7 16 32
direct
   0.5069020662885368    0.0064520153285639    0.4859145072176406 Mg
   0.2445901387398025    0.7435493617276180    0.7408862450810921 Mg
   0.4941672576377767    0.4933133718155394    0.9855700017926872 Mg
   0.7498200877708502    0.2503308985780775    0.7495692813690197 Mg
   0.2503572622043366    0.2415312101653830    0.2542933871897576 Mg
   0.7461863790935322    0.7543508309941690    0.2427343797259254 Mg
   0.0087281289780785    0.4999731749999268    0.4895709664926512 Mg
   0.1087138163154144    0.8823044391150504    0.3899349292461974 Sc
   0.3603081086124649    0.1291457249957198    0.8694901966861177 Sc
   0.3738140830441660    0.3722779352523797    0.6285655674680556 Sc
   0.1142327528730886    0.1386985635403372    0.6384368085729069 Sc
   0.1101547886329992    0.3686778616192659    0.8804321886437212 Sc
   0.3677615086743261    0.6134296306015394    0.3789711402334712 Sc
   0.3756325345711594    0.8737362510929689    0.1256617437665585 Sc
   0.1287370848433364    0.6136498610100516    0.1330649363022932 Sc
   0.6317849740438500    0.8844148929961504    0.8798399977795444 Sc
   0.8692917562811587    0.1382978800010622    0.3889056883401298 Sc
   0.8670950946196395    0.3817262998618528    0.1277683341518265 Sc
   0.6279054158130242    0.1096412886646241    0.1104831503559559 Sc
   0.6260937436322473    0.3738021240952196    0.3738256587522536 Sc
   0.8786436651427614    0.6337067050130047    0.8885604787906423 Sc
   0.8747211129891767    0.8766413508380377    0.6227070388666612 Sc
   0.6257667875975943    0.6266092215541560    0.6252191814081610 Sc
   0.3830584518141673    0.1331410065466907    0.1221863767842346 Se
   0.6282652393612730    0.3675326504733485    0.6202991396363579 Se
   0.6170588348838332    0.1157667298731733    0.8851839034907816 Se
   0.3823246523293848    0.3898569769932464    0.3935844496278012 Se
   0.3779303878048367    0.1316349380249454    0.6325606865629595 Se
   0.1109187672386675    0.8724266266593556    0.1318782100397021 Se
   0.1278052803062404    0.1366298200584427    0.8668724884043211 Se
   0.3692610133112348    0.8875838107860642    0.3705614089027215 Se
   0.3921785212417893    0.6000359413346708    0.6149105483635254 Se
   0.6108755822854391    0.9008679828472983    0.1107180489772427 Se
   0.6105929484067056    0.6195157013228491    0.3858371194628596 Se
   0.3761903126773502    0.8917956154736899    0.8810827232364665 Se
   0.3727752018539515    0.6433930479612072    0.1125060607116989 Se
   0.1341746569092773    0.3683166979712473    0.6349053813364025 Se
   0.1459345098367577    0.6266830432606388    0.3578562086736322 Se
   0.3650701932034943    0.3648584930527067    0.8683562589550514 Se
   0.8926737953045890    0.1253376737395002    0.6268572028191026 Se
   0.1123202441722344    0.3758840914857152    0.1125597322930309 Se
   0.1130379790106330    0.1058021717784287    0.3965064846672156 Se
   0.8945394104038474    0.3661587293161458    0.8752082844063395 Se
   0.8674474585400044    0.1246311467295800    0.1229391263837149 Se
   0.6501457609895247    0.8574861001753897    0.6323878175478443 Se
   0.6452344691357516    0.1196943802328899    0.3615881616446035 Se
   0.8740084798159410    0.8554452693461383    0.8699162913319869 Se
   0.8891422596933166    0.6099020267002778    0.1223926817272986 Se
   0.1190272065627844    0.8818750357700589    0.6190160489814176 Se
   0.1174253596482140    0.6164790300865585    0.8831218917952860 Se
   0.8872180280879439    0.8713337839272757    0.3978334223625477 Se
   0.8576497427239995    0.6503378846147284    0.6316846577128348 Se
   0.6236758923759367    0.3790418174394610    0.1336418641281091 Se
   0.6403047527976842    0.6348151746605138    0.8801543921082892 Se
   0.8723088040020438    0.3579485834028399    0.3666175170499889 Se
