Mg7 Sc16 Se32
1.0
  11.1003847944368736    0.0000000000000000    0.0000000000000000
   0.0000000000000000   11.1003847944368736    0.0000000000000000
  -0.0000000000000000   -0.0000000000000000   11.1003847944368736
Mg Sc Se
7 16 32
direct
   0.5008360429577799    0.0009254805081416    0.4991712993110831 Mg
   0.2498680567043306    0.7510398561885067    0.7421241866668894 Mg
   0.5031515372361490    0.5017453050014954    0.0027048997247900 Mg
   0.7468701272873373    0.2499218889096244    0.7526677920395176 Mg
   0.2507830996332541    0.2442506369984663    0.2489270414637875 Mg
   0.7514473503074760    0.7462922592654798    0.2442195305701649 Mg
   0.9992589441177749    0.5078055640606995    0.4969166828713503 Mg
   0.1266003843481822    0.8749534297389521    0.3739162841878441 Sc
   0.3786553257912962    0.1182019013706776    0.8714433578058429 Sc
   0.3667427528734613    0.3776324311765291    0.6208864241133004 Sc
   0.1201334213116595    0.1197133574141750    0.6220566534763194 Sc
   0.1257613883885859    0.3778937196075754    0.8744886850692549 Sc
   0.3763811544382680    0.6271618021890700    0.3707112246624337 Sc
   0.3748106867705110    0.8751168547882086    0.1250000753069854 Sc
   0.1247673949121504    0.6250225519878099    0.1251359152318693 Sc
   0.6238369425796796    0.8736146995149847    0.8746456457715263 Sc
   0.8654131830078283    0.1288358983348148    0.3762285974074923 Sc
   0.8726766951799209    0.3790952869057613    0.1240102234045785 Sc
   0.6325147656201114    0.1280953578687385    0.1235471731676914 Sc
   0.6237593305781465    0.3707725803602917    0.3794442311504035 Sc
   0.8731607024574081    0.6256781704019219    0.8741940145580950 Sc
   0.8710319199367473    0.8759626830411438    0.6248973927951466 Sc
   0.6271820921582036    0.6281849667794754    0.6193445165025027 Sc
   0.3837233894405403    0.1182731704791751    0.1156385695046923 Se
   0.6170475854980906    0.3830598322080410    0.6171605292544897 Se
   0.6258282813674302    0.1181242028643422    0.8860296874163364 Se
   0.3785848151250460    0.3859104367371390    0.3867462238631439 Se
   0.3687008122880473    0.1360720971961728    0.6314603629760852 Se
   0.1375259893029039    0.8739572381155356    0.1310820093027424 Se
   0.1276819831951720    0.1358023616794771    0.8709495510258924 Se
   0.3691474923555431    0.8672148628453901    0.3722587649152732 Se
   0.3843640883608545    0.6151639555327661    0.6091339743163963 Se
   0.6167220357936742    0.8829596772241387    0.1174000079340374 Se
   0.6125678531804016    0.6190223863915886    0.3844885289701496 Se
   0.3810391424586965    0.8802575682973982    0.8817621951050356 Se
   0.3671158041365877    0.6328670321708859    0.1329461102770451 Se
   0.1324866760625698    0.3672929320366981    0.6313216022247671 Se
   0.1304462648740319    0.6339046059844201    0.3661629110720445 Se
   0.3620434117940069    0.3648675210372873    0.8651118158111040 Se
   0.8813740457507298    0.1181604610458022    0.6278347902764080 Se
   0.1193213433042236    0.3831448011937129    0.1113913223192652 Se
   0.1198761133811486    0.1206626761257254    0.3854700774991667 Se
   0.8876313246743605    0.3810458251766423    0.8827416525936835 Se
   0.8730295195629532    0.1345497390108087    0.1316444884294919 Se
   0.6259894933436718    0.8635929629729781    0.6337964998761718 Se
   0.6317540956701965    0.1318878757963293    0.3671343068749448 Se
   0.8646898653198595    0.8677812251889403    0.8656516756926345 Se
   0.8785056253461763    0.6222813283357235    0.1192847833314015 Se
   0.1085819127399282    0.8860863793315596    0.6152508141413505 Se
   0.1186055029901253    0.6187023692084029    0.8828667560131062 Se
   0.8903264545261785    0.8807010038026611    0.3895834406167010 Se
   0.8659326968527519    0.6275063509346512    0.6290857478378569 Se
   0.6317843682009461    0.3712043462049364    0.1361852410174339 Se
   0.6262381710550931    0.6364546079817530    0.8640052353345014 Se
   0.8643460546477922    0.3694815647939279    0.3706139123770013 Se
