Mg7 Sc16 Se32
1.0
  11.1003847944368736    0.0000000000000000    0.0000000000000000
   0.0000000000000000   11.1003847944368736    0.0000000000000000
  -0.0000000000000000   -0.0000000000000000   11.1003847944368736
Mg Sc Se
7 16 32
direct
   0.5009127471713177    0.9971271342297375    0.5061109177346496 Mg
   0.2578004475207404    0.7623777419578206    0.7447437024801700 Mg
   0.4811115442000214    0.5029636226159726    0.9916739775385426 Mg
   0.7670660494896312    0.2556869916985155    0.7456553471486863 Mg
   0.9978455041721445    0.9969266436087629    0.0074372815719515 Mg
   0.7495372266617157    0.7496439987941959    0.2501729439831113 Mg
   0.9997571886811921    0.4998991724881640    0.5001422788930456 Mg
   0.1306959870242065    0.8781696051309733    0.3742715918070045 Sc
   0.3770334618673085    0.1266275880103774    0.8748313004091692 Sc
   0.3552514133045950    0.3805197953316051    0.6341918351343458 Sc
   0.1150293575619027    0.1292715534568672    0.6223111744531212 Sc
   0.1463954553827992    0.3661302404418966    0.8795490937837164 Sc
   0.3826713484791399    0.6422305572064797    0.3888227361758754 Sc
   0.3838086110733932    0.8704721424725379    0.1251307673359389 Sc
   0.1082266817518636    0.6214819094278656    0.1269107372448692 Sc
   0.6322012423385114    0.8662402172210921    0.8783819694101918 Sc
   0.8793433021754608    0.1390103656603522    0.3881613023073150 Sc
   0.8748852125012904    0.3754295810891898    0.1238053813665290 Sc
   0.6294377450444804    0.1219155078239385    0.1208593283479340 Sc
   0.6149990530148733    0.3626882095562307    0.3622754191662185 Sc
   0.8734735669959524    0.6244043113098854    0.8891182926333541 Sc
   0.8846431297308995    0.8705591590380958    0.6256410368884612 Sc
   0.6162799025601012    0.6237038647343254    0.6463196785929823 Sc
   0.3866753965002640    0.1196095497162887    0.1172516109598164 Se
   0.6181367724246819    0.3901182679549663    0.6085363777459689 Se
   0.6150643771048344    0.1177173355873822    0.8842248119326659 Se
   0.3849617185278437    0.3898916086941462    0.3812221985479043 Se
   0.3745896232716530    0.1367081213488646    0.6403135306831517 Se
   0.1326064852629711    0.8706552323134564    0.1275644280458615 Se
   0.1547411355692705    0.1413055550199028    0.8641528068970770 Se
   0.3712781914668464    0.8651238553749635    0.3687316811131973 Se
   0.3912021056319925    0.6107667303733658    0.6226940091313092 Se
   0.6063579870999900    0.8767244412902703    0.1246882634723701 Se
   0.6004597909355354    0.6149608549830804    0.3776926244174822 Se
   0.3849580708172277    0.8853479534770022    0.8891359099089723 Se
   0.3590436608115425    0.6341092408216810    0.1450614156039698 Se
   0.1382741411198595    0.3699991433542830    0.6327920237548734 Se
   0.1322254733816700    0.6301493331003124    0.3670568045506130 Se
   0.3693357469876815    0.3823052602140627    0.8752699568731579 Se
   0.8827434260814312    0.1191440234287972    0.6229992421636145 Se
   0.1188043429138011    0.3950741269028642    0.1180728945885700 Se
   0.1268981760001269    0.1178565737026837    0.3855155103671357 Se
   0.8832550754322729    0.3869849309903419    0.8631939274059764 Se
   0.8786665807174980    0.1210797039454173    0.1284037824601654 Se
   0.6389738985851426    0.8687885394119931    0.6497330148639883 Se
   0.6323675476542464    0.1283355509529462    0.3666251174788047 Se
   0.8675821772507700    0.8675819847243484    0.8671723575926001 Se
   0.8833108243904784    0.6177189187428739    0.1171510921999085 Se
   0.1211966513751572    0.8694863480346940    0.6227153347565630 Se
   0.1083727077787764    0.6056447738185865    0.8895309957840954 Se
   0.8702073421638731    0.8814397891884975    0.3813117158363281 Se
   0.8733276867109404    0.6366741111953187    0.6414019639479308 Se
   0.6333250190022729    0.3665827575524171    0.1325496532913662 Se
   0.6291681707491121    0.6441473979758037    0.8841102249845932 Se
   0.8700053699943091    0.3671994544619143    0.3755005677391179 Se
