Mg7 Sc16 Se32
1.0
  11.1003847944368736    0.0000000000000000    0.0000000000000000
   0.0000000000000000   11.1003847944368736    0.0000000000000000
  -0.0000000000000000   -0.0000000000000000   11.1003847944368736
Mg Sc Se
7 16 32
direct
   0.1813664562512345    0.2549393138551582    0.2463882856840157 Mg
   0.2504033707371382    0.7506607494722094    0.7500042578460248 Mg
   0.4976595144521748    0.4994382465503058    0.9981864347365191 Mg
   0.7498175285550214    0.2509676447797321    0.7495345138837859 Mg
   0.0024464970189135    0.0016531164257493    0.0001208176174915 Mg
   0.7470054961361817    0.7470464481260370    0.2490649582709747 Mg
   0.9964142058711688    0.5006549088480465    0.5025858912129030 Mg
   0.1277747665688134    0.8721664899797368    0.3742891702994100 Sc
   0.3750766589333118    0.1255379345508723    0.8751289025855233 Sc
   0.3724228025133977    0.3770909873324182    0.6279285783679682 Sc
   0.1251337534532663    0.1265011199947742    0.6266750838045492 Sc
   0.1251426012817498    0.3746683885805970    0.8745936128149910 Sc
   0.3748691860421814    0.6245762813157435    0.3755692213921462 Sc
   0.3768278544709797    0.8745018572608273    0.1247458471067084 Sc
   0.1260512294368985    0.6260954820227496    0.1262476201692772 Sc
   0.6236753506993034    0.8725950663968512    0.8758186018937189 Sc
   0.8743210678263630    0.1264812144836724    0.3741409462698401 Sc
   0.8745148041765689    0.3746682972160582    0.1260858388284570 Sc
   0.6265492298272298    0.1245608835050917    0.1248090303527348 Sc
   0.6269410173167121    0.3768646178867681    0.3730357898742934 Sc
   0.8746052472273531    0.6245281720984227    0.8750525291454093 Sc
   0.8752462588199759    0.8748839760304519    0.6251825857304395 Sc
   0.6264909903788562    0.6260506390594148    0.6259967804331888 Sc
   0.3846838992433435    0.1164474252846405    0.1186669668138342 Se
   0.6183369588454428    0.3796045934895780    0.6174334322592956 Se
   0.6190188971615108    0.1145232386173109    0.8801746741147695 Se
   0.3833100306671569    0.3829817711078132    0.3827800087802679 Se
   0.3640123881918778    0.1322617413899906    0.6333153739603977 Se
   0.1325895018921306    0.8684140411125167    0.1325537615970993 Se
   0.1351745815647398    0.1318512302182653    0.8691254121947932 Se
   0.3662305281379639    0.8683722710432867    0.3700758520599488 Se
   0.3830068011560588    0.6166647443070045    0.6179592349540275 Se
   0.6189402410519191    0.8834662612593048    0.1162452858943419 Se
   0.6158604577315051    0.6157641260640296    0.3808239164975408 Se
   0.3816491894334716    0.8833435347544537    0.8831409230947460 Se
   0.3671155742348105    0.6337177486208000    0.1360577760641102 Se
   0.1322543357142274    0.3669956578607630    0.6330213664846707 Se
   0.1329426997870982    0.6332185421388317    0.3664004867625325 Se
   0.3686735095485413    0.3655487019642718    0.8703817834013639 Se
   0.8836593277245044    0.1152043419028977    0.6196860152252108 Se
   0.1191317875431551    0.3804413415684836    0.1164506755511398 Se
   0.1167019361099562    0.1183319847964548    0.3829073513230188 Se
   0.8799759975145416    0.3838483837819027    0.8838843353291537 Se
   0.8665135816235543    0.1316590166015126    0.1325476371978198 Se
   0.6295315257912466    0.8672405447938357    0.6341975283039538 Se
   0.6364985546220026    0.1340240411979504    0.3661502899133169 Se
   0.8666180692741794    0.8665125357052561    0.8672039658174970 Se
   0.8829682792459166    0.6160671447019694    0.1161988843844724 Se
   0.1170623592840945    0.8828235456302016    0.6171645838678578 Se
   0.1156944559646962    0.6186583146073144    0.8836026737140977 Se
   0.8798836067232060    0.8847930573597153    0.3837654247856098 Se
   0.8675173154249642    0.6325726862768096    0.6328582722041924 Se
   0.6338998495357466    0.3670544683185135    0.1320533630006722 Se
   0.6357355502691446    0.6304531708681852    0.8657269090085217 Se
   0.8674667639137442    0.3667454944792857    0.3670032632667177 Se
