Mg7 Sc16 Se32
1.0
  11.1003847944368736    0.0000000000000000    0.0000000000000000
   0.0000000000000000   11.1003847944368736    0.0000000000000000
  -0.0000000000000000   -0.0000000000000000   11.1003847944368736
Mg Sc Se
7 16 32
direct
   0.5081694438663917    0.9962215355242807    0.5079218220457363 Mg
   0.2519012332493775    0.7447567864160950    0.7573061687023579 Mg
   0.4946725325038543    0.4998053117807109    0.0118122747918611 Mg
   0.7400257490510527    0.2430430833040776    0.7451816680451039 Mg
   0.9902735379398520    0.0084148424688874    0.0044553719206076 Mg
   0.7505286342631522    0.7543538086983982    0.2544635353165866 Mg
   0.2455513839099513    0.2462251283204747    0.2116119583612437 Mg
   0.1214961380561910    0.8816582973470589    0.3691881610748854 Sc
   0.3832567349782577    0.1198497866603088    0.8697179401115128 Sc
   0.3685209793248748    0.3793019036750814    0.6267647120155468 Sc
   0.1225069630543668    0.1281904087619462    0.6286411697464395 Sc
   0.1199300758127783    0.3757079033847323    0.8824246999687099 Sc
   0.3765222011911882    0.6264308943649696    0.3770860138019961 Sc
   0.3690605475361838    0.8707243514427768    0.1244820459307612 Sc
   0.1214724144781150    0.6271339313509773    0.1299940359628494 Sc
   0.6389652117561843    0.8756373352597565    0.8763101504079781 Sc
   0.8676930534460942    0.1191087020709840    0.3651878483544024 Sc
   0.8749440318610227    0.3749954894888781    0.1250596150895560 Sc
   0.6253479633849243    0.1244353345132703    0.1251808209992980 Sc
   0.6295036840696272    0.3705857448140599    0.3725809335705447 Sc
   0.8723136480017859    0.6256898205591298    0.8757933548951866 Sc
   0.8713732493470392    0.8727282587158057    0.6281932626305394 Sc
   0.6177148176636240    0.6268608935065053    0.6278926025858205 Sc
   0.3837847974019657    0.1206459383119646    0.1182350629106762 Se
   0.6256334804469510    0.3761236298018046    0.6180972912917018 Se
   0.6180390327142631    0.1172463777988707    0.8836209060905060 Se
   0.3824168843597810    0.3829813019683463    0.3825716644929207 Se
   0.3621963826778448    0.1343998654734835    0.6342939258763663 Se
   0.1314573003354451    0.8677700124878508    0.1320694200363490 Se
   0.1356938195022514    0.1245261414409117    0.8676739766654870 Se
   0.3661657714409075    0.8752272980976261    0.3659975122938570 Se
   0.3936205705924636    0.6107394837015468    0.6171853700499568 Se
   0.6149683978314683    0.8840233867583154    0.1160588457041060 Se
   0.6100040001071273    0.6182946298363640    0.3828879828284010 Se
   0.3833421189159414    0.8842906368918134    0.8818988799602793 Se
   0.3667048854192663    0.6345384617711844    0.1326346810088422 Se
   0.1312939688886815    0.3681389104318854    0.6344404729418598 Se
   0.1300565286253801    0.6291311558771928    0.3678923613734107 Se
   0.3614311683205542    0.3691683288932092    0.8733496342800724 Se
   0.8824256723901343    0.1172959111969833    0.6168552939095162 Se
   0.1177060436013054    0.3837244034388922    0.1161589909176813 Se
   0.1225053591255832    0.1196426831037763    0.3782607200802888 Se
   0.8814685453450249    0.3778961172620856    0.8761553508617538 Se
   0.8647784488997182    0.1401891471196998    0.1334030376020650 Se
   0.6263494528917318    0.8616466875092145    0.6272835876652872 Se
   0.6336360539044270    0.1378974438665012    0.3647621730416802 Se
   0.8649629516295086    0.8668933526154445    0.8631678819832886 Se
   0.8893501402881732    0.6179074309134168    0.1127958935306135 Se
   0.1229799816475508    0.8870117884038721    0.6059316385037038 Se
   0.1149569780532982    0.6198074686308431    0.8796742925388481 Se
   0.8894684282185119    0.8846361034584724    0.3763445882419632 Se
   0.8788067082795933    0.6335711238803552    0.6257566979262491 Se
   0.6374818025666297    0.3593529663797827    0.1354884258797158 Se
   0.6299756828397370    0.6322493041385324    0.8695189200935476 Se
   0.8735796193561129    0.3587435594049614    0.3580011199342212 Se
