Mg7 Sc16 Se32
1.0
  11.1003847944368736    0.0000000000000000    0.0000000000000000
   0.0000000000000000   11.1003847944368736    0.0000000000000000
  -0.0000000000000000   -0.0000000000000000   11.1003847944368736
Mg Sc Se
7 16 32
direct
   0.4999023101944313    0.9946233002512614    0.5046348078585891 Mg
   0.2082941069719214    0.2104696724292314    0.1792978660589862 Mg
   0.5018137535435471    0.5050837197748177    0.9973807597095095 Mg
   0.7518062781743786    0.2500366817135422    0.7420427557073770 Mg
   0.0016552834616806    0.0005701962418941    0.0003403595147887 Mg
   0.7454034564389584    0.7494046801865262    0.2552325980543433 Mg
   0.9961663625304190    0.4998339245880400    0.4996263256741645 Mg
   0.1198627774939424    0.8798894969920682    0.3775938475106955 Sc
   0.3780004954931718    0.1177825562460399    0.8741589235003476 Sc
   0.3788322226504583    0.3774623436016984    0.6235266996800196 Sc
   0.1257794943136601    0.1198334259744479    0.6211627013251327 Sc
   0.1283387283309863    0.3781815961293066    0.8760416928040642 Sc
   0.3789227804497838    0.6265544760173730    0.3757369624283046 Sc
   0.3753935376056205    0.8793372614288492    0.1250517607440703 Sc
   0.1316424807701829    0.6233047042780137    0.1285040035467857 Sc
   0.6282664200645410    0.8773436977567047    0.8703459657786989 Sc
   0.8693360855031442    0.1237206350727019    0.3733393223577334 Sc
   0.8694828657636133    0.3748890612200677    0.1182296210118553 Sc
   0.6239847235738086    0.1268357216579222    0.1243596763585548 Sc
   0.6205982157793852    0.3724719402409965    0.3740351886989940 Sc
   0.8802067488585218    0.6263606171386696    0.8660191699341379 Sc
   0.8739544691525463    0.8755058187105993    0.6248443289161733 Sc
   0.6310660686853111    0.6199376113566187    0.6204720560810020 Sc
   0.3790921775945923    0.1146472512113122    0.1256331179253861 Se
   0.6216623772577781    0.3888946771155701    0.6170177314026216 Se
   0.6165855749538874    0.1163500982776652    0.8850057424399798 Se
   0.3871100672073388    0.3814069076111454    0.3901493651812558 Se
   0.3674898753588889    0.1320786600715443    0.6325408953132959 Se
   0.1287869114773287    0.8592871552705623    0.1345726366000828 Se
   0.1326523827448410    0.1332438776552315    0.8669834537169806 Se
   0.3712870784401294    0.8692732944597584    0.3654516906703093 Se
   0.3796660599584548    0.6220844210933518    0.6176550645906687 Se
   0.6169062359413430    0.8893431153349292    0.1112595701281150 Se
   0.6143296361910661    0.6168447515085357    0.3807263708539747 Se
   0.3855186821476640    0.8892852385268626    0.8865406494618200 Se
   0.3691540095165924    0.6337269199358641    0.1288769637625252 Se
   0.1379092844993840    0.3607593716847184    0.6361755697574232 Se
   0.1348863441568255    0.6316809624183586    0.3682111871798260 Se
   0.3675643880176887    0.3686022428175138    0.8669792040202912 Se
   0.8829298992321041    0.1170930539857615    0.6171946553499760 Se
   0.1172423918108301    0.3754937830415595    0.1170211972894839 Se
   0.1189409870836959    0.1144669015291929    0.3831668913831576 Se
   0.8856289898715410    0.3767866703944003    0.8837367062920349 Se
   0.8695543537741547    0.1321879268346960    0.1328527528459049 Se
   0.6228359330533997    0.8710380911662400    0.6321341313237999 Se
   0.6329655142698095    0.1362732878247985    0.3667729951544755 Se
   0.8725263992591066    0.8629790069788672    0.8619553370630350 Se
   0.8806942062346099    0.6122353685913291    0.1165103948581754 Se
   0.1168429815496539    0.8833191518694290    0.6220323071291677 Se
   0.1132591481580504    0.6153973953651561    0.8867011724017021 Se
   0.8783541355300285    0.8830110640897618    0.3819383840848090 Se
   0.8621308858630468    0.6313850361225546    0.6285095917376717 Se
   0.6324988781259253    0.3719581759326280    0.1297868229638566 Se
   0.6281455456001634    0.6335046001417257    0.8669890817288421 Se
   0.8652681159457088    0.3683382047293334    0.3625731243668623 Se
