Mg7 Sc16 Se32
1.0
  11.1003847944368736    0.0000000000000000    0.0000000000000000
   0.0000000000000000   11.1003847944368736    0.0000000000000000
  -0.0000000000000000   -0.0000000000000000   11.1003847944368736
Mg Sc Se
7 16 32
direct
   0.5040818106136729    0.9928004990055473    0.5033700710983878 Mg
   0.2517326795423397    0.7475211673994440    0.7439328001550211 Mg
   0.3600511878848226    0.3500541989740332    0.1341679795065734 Mg
   0.7524153924714260    0.2543699014243389    0.7470648625331494 Mg
   0.0033057408017260    0.9958965260543745    0.9917113905425883 Mg
   0.7483797281525552    0.7484623514742786    0.2496204857411788 Mg
   0.0008503543452911    0.4998574875548166    0.5013707231318586 Mg
   0.1208213172873679    0.8786027881492277    0.3815102377911990 Sc
   0.3722232011790958    0.1282708101748565    0.8729647083562950 Sc
   0.3824777100617497    0.3789466719456779    0.6276043918071349 Sc
   0.1247676169139702    0.1253503395227717    0.6227218576435598 Sc
   0.1324638787068496    0.3655246876206826    0.8788475597638434 Sc
   0.3749632711440514    0.6155065752549279    0.3772141083672750 Sc
   0.3635636584792582    0.8745987903865154    0.1262347263123123 Sc
   0.1236930064612997    0.6177248995833449    0.1279011030268560 Sc
   0.6263915475034719    0.8737948272503963    0.8740766063708270 Sc
   0.8775306195199676    0.1317229839276655    0.3802382127116349 Sc
   0.8724897889584852    0.3782578804087089    0.1193222709408568 Sc
   0.6302609749756551    0.1229438316727433    0.1172090351017563 Sc
   0.6250706723766146    0.3762173037400013    0.3744419840751949 Sc
   0.8691648884817047    0.6156975689434646    0.8767911135768344 Sc
   0.8748346895471334    0.8759276891957462    0.6242498662446462 Sc
   0.6233202892078570    0.6379583095165862    0.6218874877637327 Sc
   0.3817794433344464    0.1181483364778480    0.1167070796624285 Se
   0.6161270298508884    0.3780493507673137    0.6138048243174974 Se
   0.6153282573495389    0.1198490206512111    0.8739680410246365 Se
   0.3766490342288807    0.3795214131516931    0.3781403241724102 Se
   0.3551716511834792    0.1261037475471986    0.6320987143320810 Se
   0.1277289102419621    0.8662881490125925    0.1262941691552181 Se
   0.1347151838797446    0.1279927987294815    0.8603884523044404 Se
   0.3697131661709131    0.8595281013981450    0.3710428781965887 Se
   0.3830670542982618    0.6170370642773825    0.6173532404993430 Se
   0.6170742852601079    0.8830330878406585    0.1171642645849193 Se
   0.6163228369042649    0.6233860367728743    0.3866008811123438 Se
   0.3802107262120258    0.8877080470534577    0.8699814927184127 Se
   0.3741061117696687    0.6317237659072772    0.1296585351502127 Se
   0.1297832224870455    0.3658468008630774    0.6326313669428177 Se
   0.1289141932175333    0.6398987468407012    0.3636284280982011 Se
   0.3679802729472257    0.3683745038602963    0.8674856853633768 Se
   0.8780673274093613    0.1137610187791731    0.6054408545048504 Se
   0.1157560258705175    0.3881393034849192    0.1119300974257583 Se
   0.1268372435253332    0.1193173748869533    0.3824083540573493 Se
   0.8835478725479725    0.3822355613450510    0.8817763556576930 Se
   0.8638881383676239    0.1301196870113010    0.1266864401962922 Se
   0.6383679501035497    0.8656106931035165    0.6390641936984590 Se
   0.6303416437006757    0.1338818205443533    0.3707676132712436 Se
   0.8627932427377275    0.8718364370465838    0.8698847418152683 Se
   0.8825214502268348    0.6174107541011096    0.1169652730014671 Se
   0.1227086037131736    0.8853576373446128    0.6104127885759062 Se
   0.1170932465948549    0.6171719266089530    0.8828377450709838 Se
   0.8832016901872249    0.8823638392792269    0.3836941109527696 Se
   0.8641780582564250    0.6292167293909108    0.6277010904331659 Se
   0.6319729684609147    0.3684475076907972    0.1295035502668034 Se
   0.6252417426235910    0.6237948798550809    0.8637362447853422 Se
   0.8552442655940392    0.3668032595261919    0.3596186439102639 Se
