Mg7 Sc16 Se32
1.0
  11.1003847944368736    0.0000000000000000    0.0000000000000000
   0.0000000000000000   11.1003847944368736    0.0000000000000000
  -0.0000000000000000   -0.0000000000000000   11.1003847944368736
Mg Sc Se
7 16 32
direct
   0.4957004195844864    0.0023959955037660    0.4964192199868859 Mg
   0.2476782070300743    0.7487894842196716    0.7510216619652511 Mg
   0.1946649099000541    0.2245246356835927    0.2589395095514378 Mg
   0.7486160787569788    0.2538316481788520    0.7446789325125208 Mg
   0.9994086988247799    0.9933739421075831    0.0003588877540285 Mg
   0.7459329173782465    0.7444473492666055    0.2508727711423165 Mg
   0.9997070883514639    0.5004578985696837    0.5004414804773309 Mg
   0.1261620686856237    0.8763575246385205    0.3754091846170524 Sc
   0.3716281713824934    0.1255954589839090    0.8762665613981184 Sc
   0.3783515746141963    0.3745065940958490    0.6184025196871044 Sc
   0.1245858577177512    0.1252728576288411    0.6240888593283340 Sc
   0.1229797647840772    0.3750040527051996    0.8754037860162546 Sc
   0.3759048225263057    0.6229551944309657    0.3720049826325696 Sc
   0.3766986417746742    0.8722328142268466    0.1250190360550820 Sc
   0.1269743564382243    0.6269948317821399    0.1232940323026695 Sc
   0.6263266679732680    0.8757086167521954    0.8758943428390070 Sc
   0.8766046066985258    0.1303638584927174    0.3738255952340798 Sc
   0.8790438871109951    0.3812437787061174    0.1254228391352872 Sc
   0.6241302479443719    0.1250160154406599    0.1266895281522555 Sc
   0.6263288160334216    0.3753253875383730    0.3744497152876805 Sc
   0.8746336583265987    0.6243959034563104    0.8739301790007714 Sc
   0.8756560634438081    0.8752979371165728    0.6264152330543944 Sc
   0.6261766681821481    0.6253971347576428    0.6254917008994734 Sc
   0.3788861818090964    0.1182086364398911    0.1115878234816658 Se
   0.6181763196139364    0.3822102396307747    0.6174540192883753 Se
   0.6195318965681799    0.1128025502709639    0.8825569061486094 Se
   0.3847900683578765    0.3839322251338230    0.3875113447710667 Se
   0.3658510991743213    0.1328153611892776    0.6315231373387085 Se
   0.1347125388841816    0.8681264899434054    0.1328779606492600 Se
   0.1272576157125819    0.1325418807682548    0.8632978665441138 Se
   0.3666099133779603    0.8656035033345939    0.3661173830740023 Se
   0.3828720794080574    0.6171315869158335    0.6171133296881710 Se
   0.6187722475331439    0.8875211852112381    0.1214481823426101 Se
   0.6188132879171100    0.6159194648768992    0.3822106106874604 Se
   0.3856978136172245    0.8832271976501536    0.8814026075367686 Se
   0.3663409161194836    0.6304916116541170    0.1341229114213544 Se
   0.1331764463654330    0.3668644312989259    0.6334599673172542 Se
   0.1354600676413516    0.6333711828774276    0.3683972700596947 Se
   0.3665128577794737    0.3667378901425803    0.8681890763849973 Se
   0.8840353532616230    0.1228654769520914    0.6146535845503956 Se
   0.1175329919098781    0.3831743323116449    0.1182893791794636 Se
   0.1147039105804292    0.1161008075430734    0.3817099501873117 Se
   0.8862808309418277    0.3826321475489698    0.8872723271683391 Se
   0.8671120816062142    0.1328674426769239    0.1326702349040036 Se
   0.6347461972869852    0.8687796844082569    0.6334097522267992 Se
   0.6351959406788659    0.1350543309426884    0.3649441694123060 Se
   0.8645316200063228    0.8671162428471084    0.8662523533834203 Se
   0.8830067075949565    0.6174191560704329    0.1171991447570291 Se
   0.1167883952092028    0.8835596178964020    0.6172855483178105 Se
   0.1208980020169397    0.6182995639808420    0.8866513124423688 Se
   0.8880600455797272    0.8851919666666783    0.3794562825599930 Se
   0.8697201530261652    0.6368860358156457    0.6321880490486076 Se
   0.6324386961986449    0.3704086924710194    0.1342801136232397 Se
   0.6340628140023936    0.6341537911180681    0.8664329966614086 Se
   0.8680830731748483    0.3705361487762770    0.3687212912100562 Se
