Mg7 Sc16 Se32
1.0
  11.1003847944368736    0.0000000000000000    0.0000000000000000
   0.0000000000000000   11.1003847944368736    0.0000000000000000
  -0.0000000000000000   -0.0000000000000000   11.1003847944368736
Mg Sc Se
7 16 32
direct
   0.4949911096576886    0.0037432375976674    0.5032954418116370 Mg
   0.2476426200718968    0.7478303114625264    0.7402845663426436 Mg
   0.5047046442284443    0.4947652400620091    0.0017764293087114 Mg
   0.7503329867673376    0.2497974063438836    0.7502177067760992 Mg
   0.1626837664007629    0.2371862860862869    0.2136954884818874 Mg
   0.7492738765393134    0.7532559409111632    0.2592406462770762 Mg
   0.0005477339352458    0.4950875908945395    0.4977599284622599 Mg
   0.1331080920516733    0.8791186122129978    0.3702156269404990 Sc
   0.3746712656987024    0.1237789820862526    0.8734998783003972 Sc
   0.3709816283616264    0.3767129894821896    0.6257483660957165 Sc
   0.1167775669992806    0.1297548090510200    0.6233937592054848 Sc
   0.1285530881920986    0.3647218405680209    0.8755321068420251 Sc
   0.3748714592873792    0.6218142467687503    0.3716718646237238 Sc
   0.3723215054312896    0.8778504810130703    0.1249794176015140 Sc
   0.1245629147771935    0.6307917064108746    0.1314461129486421 Sc
   0.6159935143307051    0.8741949765903616    0.8713615921061147 Sc
   0.8757099761728750    0.1238906533105397    0.3739375063025246 Sc
   0.8772987202650615    0.3795105074575005    0.1197332658854824 Sc
   0.6202631378801778    0.1193647601360540    0.1224357030210800 Sc
   0.6258587524080006    0.3754723428793635    0.3808542268228799 Sc
   0.8735115358605654    0.6279405836482712    0.8835540132810844 Sc
   0.8761399111165664    0.8747196073676858    0.6262984156141438 Sc
   0.6303120533715697    0.6254050636754285    0.6224107355058237 Sc
   0.3842321834480699    0.1183608599533689    0.1143892474523961 Se
   0.6127154687529482    0.3839721340907812    0.6171143713545417 Se
   0.6157849359324403    0.1172499824625344    0.8824463622232273 Se
   0.3781666190392505    0.3745576954727606    0.3834618100707500 Se
   0.3679750348532656    0.1221513595400477    0.6345822864728405 Se
   0.1377476428744832    0.8671303881832613    0.1314670597740588 Se
   0.1378281898750118    0.1351320341792631    0.8706383167341658 Se
   0.3678830774017112    0.8665337683047565    0.3681435584495957 Se
   0.3825907483888101    0.6174288147320640    0.6167940788805046 Se
   0.6163833188536580    0.8841788185303676    0.1152608303654172 Se
   0.6251226253285784    0.6193712986461911    0.3759844181370405 Se
   0.3866384341051856    0.8807531688764471    0.8847942560210004 Se
   0.3671690944027917    0.6352089885336075    0.1324150911504516 Se
   0.1331363745467982    0.3644931026925453    0.6299539111433984 Se
   0.1336528745083513    0.6391693876212461    0.3740352502724968 Se
   0.3739112553372064    0.3623682647991482    0.8719044714495745 Se
   0.8811894615442791    0.1138107104981421    0.6208103127278004 Se
   0.1149137589917960    0.3864188167562678    0.1190238735016662 Se
   0.1244306443802130    0.1211603124944939    0.3852559367676333 Se
   0.8806541929538733    0.3838323810824587    0.8736849102226883 Se
   0.8676958193640896    0.1325536091330675    0.1265545001370101 Se
   0.6323957237707160    0.8576354534133293    0.6340706190012532 Se
   0.6300443374895695    0.1368573882673962    0.3721714463545093 Se
   0.8662606904416970    0.8676830456993503    0.8659933217096490 Se
   0.8824914921787129    0.6146793331147911    0.1167409923376031 Se
   0.1100768857793291    0.8867244457796044    0.6110179753637337 Se
   0.1201908826706081    0.6178870408845762    0.8813202021329140 Se
   0.8879935857733895    0.8865808057615083    0.3795589643909091 Se
   0.8674273873006385    0.6326100414668704    0.6325120614375324 Se
   0.6289390064672502    0.3656382957253297    0.1302936972363428 Se
   0.6272954830860440    0.6370504120634307    0.8682142295331856 Se
   0.8671638930338635    0.3670779531430466    0.3671287805993159 Se
