Mg7 Sc16 Se32
1.0
  11.1003847944368736    0.0000000000000000    0.0000000000000000
   0.0000000000000000   11.1003847944368736    0.0000000000000000
  -0.0000000000000000   -0.0000000000000000   11.1003847944368736
Mg Sc Se
7 16 32
direct
   0.5006241474663295    0.0009773030978962    0.4988083168307776 Mg
   0.2540128759849260    0.7508850601606302    0.7500121087803975 Mg
   0.5010174582094019    0.5002711326550598    0.9964613695400739 Mg
   0.7499306173214265    0.2495835648273180    0.7486769064136199 Mg
   0.9990017557003236    0.9985297575517289    0.0038248171671716 Mg
   0.7479547235036538    0.7514344931802532    0.2520056346331225 Mg
   0.2144274847725006    0.2446001744800482    0.1859584691918902 Mg
   0.1250299241961582    0.8771940851279595    0.3760528900316589 Sc
   0.3711052489995599    0.1237714118700447    0.8760693247655658 Sc
   0.3744025637250938    0.3751270738102302    0.6240531205846860 Sc
   0.1258672057096229    0.1245808885276729    0.6256580670891975 Sc
   0.1269961052588836    0.3776211914816968    0.8773357148691305 Sc
   0.3743137936651199    0.6226766327151351    0.3762791544054702 Sc
   0.3738820854372804    0.8752971614757301    0.1279502393259730 Sc
   0.1273710518709515    0.6259626451845567    0.1236356328797880 Sc
   0.6230120277213778    0.8727983819255696    0.8765892121144153 Sc
   0.8768530198817474    0.1279317070224770    0.3750588108578287 Sc
   0.8723074242814286    0.3739573871080297    0.1263474529346987 Sc
   0.6255471755158727    0.1252876970592078    0.1258173904590779 Sc
   0.6280167943663878    0.3737702060443307    0.3736892201922867 Sc
   0.8771877674345270    0.6235725260727847    0.8753296148326548 Sc
   0.8743446440745775    0.8755359954562159    0.6245065403557444 Sc
   0.6248320349832132    0.6247746192727338    0.6247451947638486 Sc
   0.3808274746669630    0.1170023971706697    0.1175737553450621 Se
   0.6180237715436385    0.3819812951025600    0.6167967779752999 Se
   0.6172675954366729    0.1170854280857177    0.8829553219985187 Se
   0.3827840552680622    0.3828508030975430    0.3826577709742411 Se
   0.3678869741339693    0.1324916428984037    0.6362415194059818 Se
   0.1330217230252925    0.8676036202209068    0.1333170565226685 Se
   0.1328385285084752    0.1328913179989855    0.8671559011828177 Se
   0.3667152709705037    0.8640162561557101    0.3681277637016905 Se
   0.3828199630356277    0.6167531613936166    0.6193468691406886 Se
   0.6171145751027743    0.8848701351514454    0.1133031201020940 Se
   0.6176913929326113    0.6176401718051320    0.3819533486768998 Se
   0.3837213789102834    0.8811891719107474    0.8826920183722027 Se
   0.3658034160211142    0.6339459039316989    0.1287295471083117 Se
   0.1360360450504254    0.3649484496315459    0.6337873093320258 Se
   0.1342750300156912    0.6313119682931188    0.3655769692917177 Se
   0.3706452726701032    0.3677920672435375    0.8693337390978058 Se
   0.8841434116289290    0.1179924838155117    0.6151173961541827 Se
   0.1190568649559131    0.3795514278282102    0.1165235128769891 Se
   0.1158394434235176    0.1171573577752119    0.3846302071319770 Se
   0.8837125617212667    0.3851967192444513    0.8833527623017990 Se
   0.8661080337755254    0.1311927826402881    0.1317495292720607 Se
   0.6363391435252299    0.8687219450326491    0.6339013483582876 Se
   0.6319109205398370    0.1344796083751456    0.3671573053382681 Se
   0.8661575416147188    0.8655624625794783    0.8700172457136400 Se
   0.8833933623546784    0.6174431109437384    0.1153591815276178 Se
   0.1200153909437588    0.8835180603200169    0.6199703717684086 Se
   0.1154350667482363    0.6176524013131736    0.8838916351569776 Se
   0.8844798407728830    0.8840127844425014    0.3839312573762109 Se
   0.8645344113966459    0.6355139419236886    0.6321272993905519 Se
   0.6359985789205256    0.3669462715952070    0.1330819776630068 Se
   0.6339223851713212    0.6317682592596782    0.8646243825853940 Se
   0.8671710954106865    0.3666142684642472    0.3682758401988353 Se
