Mg7 Sc16 Se32
1.0
  11.1003847944368736    0.0000000000000000    0.0000000000000000
   0.0000000000000000   11.1003847944368736    0.0000000000000000
  -0.0000000000000000   -0.0000000000000000   11.1003847944368736
Mg Sc Se
7 16 32
direct
   0.2560074789419567    0.2594806393443880    0.2605089152691485 Mg
   0.2451678983876192    0.7396382904560490    0.7513141499280492 Mg
   0.4995414419852784    0.4999923782333772    0.9991529681563854 Mg
   0.7507531250731964    0.2597794390378145    0.7519543200722739 Mg
   0.0002457438044238    0.0000802473450894    0.9984161937803813 Mg
   0.7502664734141122    0.7504235699399799    0.2525722490146362 Mg
   0.9992342001336275    0.5010018907628430    0.5185329814181070 Mg
   0.1275789428511752    0.8849725512051243    0.3752923631412043 Sc
   0.3807047227381126    0.1247247551765363    0.8737603536174097 Sc
   0.3656518829943825    0.3799068002738333    0.6181721610792325 Sc
   0.1189838631891613    0.1184501628336638    0.6167272288118640 Sc
   0.1290974215363672    0.3799955505925409    0.8804260864144919 Sc
   0.3618157212750296    0.6397217054876748    0.3684263968770572 Sc
   0.3806962595240356    0.8734156096925899    0.1309508776646051 Sc
   0.1250259168488525    0.6383917342137033    0.1299715921714528 Sc
   0.6201276447771422    0.8638440830723536    0.8808955989624234 Sc
   0.8729499651325022    0.1460603016385942    0.3669964788382105 Sc
   0.8913733828557415    0.3808738487464581    0.1228787387878881 Sc
   0.6150749834137414    0.1219880014106143    0.1150552779044751 Sc
   0.6268836510768458    0.3763005832417791    0.3748450890062293 Sc
   0.8798804582533007    0.6285128795764188    0.8751958950221327 Sc
   0.8796231043788378    0.8793396197810711    0.6356635645336264 Sc
   0.6235952624291063    0.6240435008581884    0.6261293883569433 Sc
   0.3972617697364805    0.1181444163849194    0.1343536135077089 Se
   0.6168753100663557    0.3731481656428732    0.6063928863887098 Se
   0.5965137658922873    0.1106651612146523    0.8877643885214200 Se
   0.3901038272521033    0.3847258226541235    0.3765706771016055 Se
   0.3884446627767781    0.1334312852662412    0.6240527860436265 Se
   0.1464445931523835    0.8618604428762096    0.1255602258626209 Se
   0.1315129765725339    0.1336997237528633    0.8673823428046800 Se
   0.3635339087501051    0.8520185754093972    0.3789382922522464 Se
   0.3992759351402514    0.6093803817402350    0.6165225359571276 Se
   0.6046336121554239    0.8917425742324275    0.1014678279337812 Se
   0.6173100097463882    0.6171234753505662    0.3801563304841030 Se
   0.3834193499157045    0.8826054762936052    0.8825667441202568 Se
   0.3736611072177832    0.6384056584789511    0.1391406979547157 Se
   0.1494855354501111    0.3586484890866296    0.6461362863615632 Se
   0.1337384066690982    0.6478117287904680    0.3658923915222740 Se
   0.3507687115198914    0.3704295000319766    0.8795507098591608 Se
   0.8742879057619978    0.1143676917601337    0.6196233001248341 Se
   0.1198682165544845    0.3840403579200620    0.1157819549948703 Se
   0.1188187849867428    0.1165059855444802    0.3836931248564135 Se
   0.8859085401324934    0.3887516103483687    0.8735795571056242 Se
   0.8776840781117116    0.1323245166779982    0.1336828477715838 Se
   0.6316468873308656    0.8694067849504897    0.6294942041323536 Se
   0.6195925649765543    0.1375726882384725    0.3614778568975013 Se
   0.8591559786812090    0.8633519163654634    0.8752714382922497 Se
   0.8828025513785935    0.6124678537545439    0.1158057382413145 Se
   0.1083026230134063    0.8878950966456827    0.6178380076636127 Se
   0.1140858957721373    0.6120928342565698    0.8681484324422170 Se
   0.8836903084606625    0.8811071485131702    0.4021610375533298 Se
   0.8670147192608185    0.6327880387799009    0.6328457901678395 Se
   0.6429667727340539    0.3634123758615244    0.1261948089488179 Se
   0.6395683940574278    0.6404054364702314    0.8694428810306181 Se
   0.8614909666643312    0.3639394507622200    0.3709631524875034 Se
