Mg7 Sc16 Se32
1.0
  11.1003847944368736    0.0000000000000000    0.0000000000000000
   0.0000000000000000   11.1003847944368736    0.0000000000000000
  -0.0000000000000000   -0.0000000000000000   11.1003847944368736
Mg Sc Se
7 16 32
direct
   0.5142381574231892    0.0019060237948274    0.5062949192056345 Mg
   0.2503617359531279    0.7500746516339205    0.7431544674188805 Mg
   0.2522328970230339    0.2504399357173279    0.2497945800344023 Mg
   0.7419942668930711    0.2471834926079977    0.7348753327273916 Mg
   0.0026879446279866    0.9980521822511765    0.9950204430760393 Mg
   0.7539430634923813    0.7379519137477217    0.2601450824023032 Mg
   0.9960907204249771    0.5066365666251633    0.4917089547967095 Mg
   0.1228246979747042    0.8715419147019329    0.3597449263720200 Sc
   0.3739657494018861    0.1265510357960022    0.8768562248923838 Sc
   0.3771580929923979    0.3689446515613222    0.6247949506440195 Sc
   0.1266741507286947    0.1286333671691910    0.6225069355432725 Sc
   0.1304958687588433    0.3706503653222694    0.8718838305687613 Sc
   0.3741249831241917    0.6246560717756873    0.3707292776210924 Sc
   0.3679826164518321    0.8706726644842119    0.1136563341451892 Sc
   0.1328330386421530    0.6353612909281369    0.1317219843540608 Sc
   0.6291994527498919    0.8754627252379025    0.8716546145621992 Sc
   0.8774217162889307    0.1252299455209138    0.3652742665628470 Sc
   0.8672013483932423    0.3707005429733635    0.1181851560466883 Sc
   0.6265764073258776    0.1234299617281981    0.1265854793423362 Sc
   0.6231110942605587    0.3638730686282702    0.3790591795141304 Sc
   0.8856643353643600    0.6313832598349360    0.8779719393677047 Sc
   0.8717427001181768    0.8794641992275469    0.6323508789979621 Sc
   0.6204730353445912    0.6194581939566683    0.6311980236116345 Sc
   0.3808868123633071    0.1176067830173930    0.1222065689243112 Se
   0.6222739921592209    0.3972468478991426    0.6105485261565590 Se
   0.6053585911456549    0.1226963618302059    0.8904288622124693 Se
   0.3836624759585379    0.3828652168955179    0.3817365919527075 Se
   0.3713076141965649    0.1360514183501579    0.6325099712729286 Se
   0.1296892023730318    0.8648356546632701    0.1308895690068586 Se
   0.1179132012691289    0.1373953456546663    0.8649618899436056 Se
   0.3682091081124499    0.8639472128388122    0.3660527515773486 Se
   0.3929322853931964    0.6097356855821360    0.6060853160054853 Se
   0.6149341750727427    0.8701070267538356    0.1145507835845872 Se
   0.6151615485480674    0.6242980817878377    0.3826426005768629 Se
   0.3872581273837138    0.8811293664919204    0.8917574389134336 Se
   0.3580437870837348    0.6397918894124707    0.1247107660117434 Se
   0.1371444871621150    0.3691390639900215    0.6294898065753379 Se
   0.1382743497115449    0.6326577511036139    0.3660077828147849 Se
   0.3672855187296223    0.3638327506091838    0.8722507496568761 Se
   0.8818369961705728    0.1253676045464186    0.6150524054195785 Se
   0.1280140653331834    0.3854040710224708    0.1199668864330894 Se
   0.1214022267484329    0.1212800188764306    0.3832121829099899 Se
   0.8680984892735363    0.3754224530264353    0.8823785236520890 Se
   0.8670782736274434    0.1333777734811978    0.1329935769276175 Se
   0.6306246524695608    0.8660884432563393    0.6363578620849035 Se
   0.6319337004714594    0.1291487972097904    0.3708145036635073 Se
   0.8606227667238621    0.8610628119027378    0.8602539387461328 Se
   0.8852379001005696    0.6180064117517844    0.1172080461964361 Se
   0.1145421602059183    0.8675725517671613    0.6153100143431868 Se
   0.1226897924636700    0.6149008476600419    0.8723806120317449 Se
   0.8710700086862819    0.8792028273679061    0.3804647221928568 Se
   0.8733708809637427    0.6341628596809763    0.6341328038155413 Se
   0.6395580141548063    0.3652815361059036    0.1393431794593235 Se
   0.6309206523157386    0.6326297791926943    0.8668062780235600 Se
   0.8671344982400827    0.3626748278393160    0.3746178034869905 Se
