Mg7 Sc16 Se32
1.0
  11.1003847944368736    0.0000000000000000    0.0000000000000000
   0.0000000000000000   11.1003847944368736    0.0000000000000000
  -0.0000000000000000   -0.0000000000000000   11.1003847944368736
Mg Sc Se
7 16 32
direct
   0.4963794131586803    0.9916134091806332    0.4939722933411931 Mg
   0.1796912365329907    0.4201538577559285    0.3744393851039960 Mg
   0.4961189113832991    0.5007767149499386    0.9997324091737417 Mg
   0.7544764816825726    0.2587129052595127    0.7483617486240309 Mg
   0.0011480721906126    0.9969724607801653    0.9879539973142241 Mg
   0.7464705337038895    0.7573422721206816    0.2550526924449770 Mg
   0.9977611739605581    0.4929184173977260    0.4933887463060780 Mg
   0.1346329054129173    0.8815613903660411    0.3730983174984923 Sc
   0.3750244151253097    0.1251027228729862    0.8750371707703830 Sc
   0.3804292805087578    0.3738785360067916    0.6319712198068613 Sc
   0.1312530483049701    0.1282933286546586    0.6231068851840378 Sc
   0.1220837231294662    0.3700671149364200    0.8757269939691681 Sc
   0.3765009640977915    0.6250922682733986    0.3761379238179073 Sc
   0.3673302660684611    0.8751800687462005    0.1221792435304056 Sc
   0.1250115362179385    0.6230620239384784    0.1253205379567622 Sc
   0.6291483186900304    0.8753023221194765    0.8715405374041659 Sc
   0.8738171170849519    0.1239725780330682    0.3733715402603129 Sc
   0.8756038018190032    0.3765839062482654    0.1244986862486172 Sc
   0.6229978562206548    0.1381858635924679    0.1291402441623284 Sc
   0.6226108243601008    0.3686186145832074    0.3692302619083369 Sc
   0.8767597418542312    0.6191090516577901    0.8684655598790033 Sc
   0.8798338110153655    0.8780208520119639    0.6246499776481673 Sc
   0.6240951850389141    0.6167796424346529    0.6253652220470105 Sc
   0.3853454854557387    0.1057651257600753    0.1202348588347592 Se
   0.6218013659473689    0.3763820749695516    0.6208992944182012 Se
   0.6184048936131343    0.1163167847960178    0.8826859403415463 Se
   0.3850110953533188    0.3838504570580656    0.3714482118648907 Se
   0.3780445712871714    0.1278376357738356    0.6351483886927716 Se
   0.1311425995730161    0.8628735670578082    0.1330542777926924 Se
   0.1419543150594482    0.1370202863783217    0.8666624323081805 Se
   0.3735308060287225    0.8662502878295975    0.3703999466563481 Se
   0.3841933076179102    0.6153675484829931    0.6113038864960061 Se
   0.6154430424010690    0.8796303771586667    0.1186002185548126 Se
   0.6160029307512078    0.6240185097617330    0.3829878030141158 Se
   0.3868637430334184    0.8853490598527669    0.8811353213477504 Se
   0.3697313991481874    0.6377289109641145    0.1348628926398453 Se
   0.1378794272635023    0.3627645620038745    0.6292312888399226 Se
   0.1361571493697690    0.6352414980493538    0.3637706462191873 Se
   0.3677159980889591    0.3701858706860784    0.8792906303841396 Se
   0.8818948800365698    0.1166708152531940    0.6221122728247778 Se
   0.1206289628152063    0.3837270316552541    0.1197156545500589 Se
   0.1166665853050749    0.1195383132539787    0.3821615101951850 Se
   0.8805310930789126    0.3830270107291462    0.8784369694919003 Se
   0.8676657425205520    0.1370640163126077    0.1210953649640144 Se
   0.6331635918680547    0.8678289590313981    0.6315271171374900 Se
   0.6338383674079707    0.1337477252818582    0.3651531278696566 Se
   0.8783620854853970    0.8603632682663033    0.8699270080325174 Se
   0.8850822042188867    0.6166575912462487    0.1180249476900339 Se
   0.1101018958183516    0.8835289783369424    0.6059365462640472 Se
   0.1155768265322430    0.6223101700728572    0.8831575304608836 Se
   0.8733358653106051    0.8827986918092553    0.3790277071799700 Se
   0.8746235326401839    0.6341417129053034    0.6379164771917035 Se
   0.6360166280334777    0.3694120566427501    0.1296214786623711 Se
   0.6366434435739415    0.6304319646991049    0.8616410982676110 Se
   0.8676027369357195    0.3670163773975811    0.3673488172379419 Se
