Mg7 Sc16 Se32
1.0
  11.1003847944368736    0.0000000000000000    0.0000000000000000
   0.0000000000000000   11.1003847944368736    0.0000000000000000
  -0.0000000000000000   -0.0000000000000000   11.1003847944368736
Mg Sc Se
7 16 32
direct
   0.4954893937445981    0.9977491881121620    0.4937672629431809 Mg
   0.2497813805933166    0.7499452819395429    0.7509423446000751 Mg
   0.5001710507588049    0.5003575586732200    0.0003146170780254 Mg
   0.7499937460774624    0.2501376611968413    0.7496957911517333 Mg
   0.9980742120337351    0.9938820243612710    0.0079554503852773 Mg
   0.7492160424678489    0.7504015817013632    0.2501344016623811 Mg
   0.0680652358726925    0.4161906836344915    0.3896713018973524 Mg
   0.1311323012782709    0.8733853523521621    0.3831224834218551 Sc
   0.3794923011940290    0.1375137244473111    0.8765363411248411 Sc
   0.3815595019540909    0.3753556917731226    0.6278500249054777 Sc
   0.1305695970660635    0.1235575439508332    0.6235187776661966 Sc
   0.1250290434015255    0.3751763442029680    0.8729793642733087 Sc
   0.3759364970695299    0.6137931003609270    0.3801278282076282 Sc
   0.3748864472428454    0.8740958837074241    0.1260376095864750 Sc
   0.1364320201412958    0.6203610846175260    0.1225478380094722 Sc
   0.6327634298123163    0.8646323230771082    0.8732085853197964 Sc
   0.8641503773061360    0.1162689666636173    0.3744182725908130 Sc
   0.8750179220310842    0.3750645848951493    0.1249287286114752 Sc
   0.6248244942845420    0.1253329451675755    0.1254167458381439 Sc
   0.6256041460366069    0.3778765355892558    0.3759420366954236 Sc
   0.8771601831412960    0.6287700076538121    0.8639430790609901 Sc
   0.8762543934653192    0.8741655283553961    0.6330848703017872 Sc
   0.6233695154310699    0.6213728883606462    0.6306180485950700 Sc
   0.3739726892649675    0.1114483234096558    0.1133681084181367 Se
   0.6163686534230114    0.3821430790918212    0.6159647873765910 Se
   0.6113746208690813    0.1069168178562587    0.8841608008580517 Se
   0.3735256468415185    0.3837579556154146    0.3872806445219221 Se
   0.3590072361270071    0.1276029704130848    0.6341858086844543 Se
   0.1396235715605359    0.8621194906480796    0.1315924397448364 Se
   0.1335145896017592    0.1364527068979542    0.8653990814244782 Se
   0.3686010012313537    0.8644344679463108    0.3717436275848244 Se
   0.3833484139657682    0.6266647443330318    0.6158194122389072 Se
   0.6120612665080004    0.8769820249018434    0.1112228640874761 Se
   0.6089437301119375    0.6099970164816600    0.3850397906569224 Se
   0.3834251323891306    0.8748922823232962    0.8896339550573831 Se
   0.3588070043669019    0.6246473476893912    0.1310568494222548 Se
   0.1328796152554589    0.3674935313957357    0.6328549047789782 Se
   0.1347245617901084    0.6235050732974572    0.3603622990669608 Se
   0.3654600836691701    0.3734294407565985    0.8660868871535169 Se
   0.8823877157647345    0.1219921889233066    0.6170535744443849 Se
   0.1163846849359886    0.3878133379127077    0.1164030048469425 Se
   0.1182200602859203    0.1162261746091914    0.3798363785536518 Se
   0.8749750964321438    0.3841763918408593    0.8900912532313225 Se
   0.8567128503339630    0.1331073849608151    0.1265228716409983 Se
   0.6414655758134324    0.8699412293991282    0.6261694982707661 Se
   0.6292942514199318    0.1364990924602163    0.3691915043026198 Se
   0.8662601979493822    0.8686748628008091    0.8678637552720563 Se
   0.8735504747768610    0.6101306333599371    0.1155767332677213 Se
   0.1165276794328526    0.8828564877640515    0.6172233330339774 Se
   0.1137668374340744    0.6099866984031274    0.8815806508006190 Se
   0.8869690582064096    0.8905026958826617    0.3737665366532291 Se
   0.8640063692311820    0.6285802117552862    0.6311564083196007 Se
   0.6363347570161375    0.3672846473900755    0.1364459788780705 Se
   0.6305176545016579    0.6300757229715944    0.8688572609442229 Se
   0.8722580151797499    0.3679194833482768    0.3732845948171980 Se
