Mg7 Sc16 Se32
1.0
  11.1003847944368736    0.0000000000000000    0.0000000000000000
   0.0000000000000000   11.1003847944368736    0.0000000000000000
  -0.0000000000000000   -0.0000000000000000   11.1003847944368736
Mg Sc Se
7 16 32
direct
   0.5000037086347920    0.9999975467021577    0.4999963036269953 Mg
   0.2465954257481310    0.7463512201940740    0.7480034393531206 Mg
   0.4897315866565215    0.4926113689370932    0.9890877145842727 Mg
   0.7476878977289247    0.2515224051364675    0.7510352869768825 Mg
   0.2200501725896163    0.2846626951876685    0.2716312085077779 Mg
   0.7548274020641467    0.7494112191973272    0.2614418486478732 Mg
   0.0065719468842869    0.5083678237191072    0.4986774094438268 Mg
   0.1287268642156507    0.8747279174553911    0.3778727246528691 Sc
   0.3796341668598447    0.1294588619938511    0.8754905510518909 Sc
   0.3752302017004133    0.3771326846817090    0.6245122676829244 Sc
   0.1231451848056089    0.1275682032796326    0.6279542730496287 Sc
   0.1243039181116606    0.3740545955702893    0.8732221697788560 Sc
   0.3735229507312163    0.6170768769037146    0.3847744055314840 Sc
   0.3761102809200242    0.8650594603705711    0.1128239002218731 Sc
   0.1176645990676515    0.6289716313356680    0.1240660100451286 Sc
   0.6268343761773267    0.8778247437191501    0.8777451574677108 Sc
   0.8766875528984029    0.1223700047111934    0.3764380136444772 Sc
   0.8792380335455281    0.3761781279144928    0.1212041374715544 Sc
   0.6219733682559103    0.1253080654350408    0.1253214326713279 Sc
   0.6265906467394989    0.3836415972217473    0.3703883748554176 Sc
   0.8812606344097830    0.6169330947291677    0.8744335587700337 Sc
   0.8642577518959664    0.8692455456531852    0.6199551260645731 Sc
   0.6280565964597615    0.6247842002853209    0.6256781767123396 Sc
   0.3835191154527630    0.1233078935368064    0.1218576151580137 Se
   0.6192617476620912    0.3787146271251278    0.6185177596308158 Se
   0.6262544647683829    0.1146174778638551    0.8753058265602041 Se
   0.3871715212089154    0.3870935395813958    0.3831863040387350 Se
   0.3614920910129259    0.1378932834319178    0.6378427442810248 Se
   0.1412320183529479    0.8734889546619238    0.1295177794205541 Se
   0.1444044255844126    0.1301181654301699    0.8549265393938854 Se
   0.3675123333282909    0.8661970661696597    0.3678921724851447 Se
   0.3911029486155521    0.6184170568302282    0.6047640139887931 Se
   0.6198788675288901    0.8812011248478343    0.1211593620353110 Se
   0.6167215803200550    0.6125492191126876    0.3837957119539304 Se
   0.3794433329328074    0.8774152330520955    0.8813592520262481 Se
   0.3676482499961254    0.6330520426059754    0.1331025526450760 Se
   0.1362681519758367    0.3734099534348755    0.6278278162853536 Se
   0.1300376785970558    0.6353520737305988    0.3573553277256455 Se
   0.3610145989925226    0.3543237938445674    0.8648543567210312 Se
   0.8766239493597699    0.1212532457416677    0.6108012233533224 Se
   0.1128031601978276    0.3864399170254298    0.1161408033760204 Se
   0.1036268118629889    0.1196763351796025    0.3910780407243048 Se
   0.8889004283607984    0.3805694963107401    0.8846712075947023 Se
   0.8793790709169326    0.1234788922753103    0.1347255618404037 Se
   0.6335858539368286    0.8658547833898274    0.6328375445957093 Se
   0.6218544640613798    0.1372321233608305    0.3598074609727695 Se
   0.8717739781801990    0.8664008185431492    0.8535321255316451 Se
   0.8825971746764533    0.6040677079241539    0.1245663195368073 Se
   0.1176953487199451    0.8795821148728878    0.6142640316340663 Se
   0.1141241607197168    0.6078710971868303    0.8925560790586642 Se
   0.8909473212294524    0.8846484991922329    0.3851785044000567 Se
   0.8682205058594663    0.6300632752281841    0.6352012473626104 Se
   0.6457990400792484    0.3720786611774047    0.1239499231912712 Se
   0.6321778408033010    0.6343678395906555    0.8649408454370432 Se
   0.8808009073059011    0.3730523320943533    0.3605058382981207 Se
