Mg7 Sc16 Se32
1.0
  11.1003847944368736    0.0000000000000000    0.0000000000000000
   0.0000000000000000   11.1003847944368736    0.0000000000000000
  -0.0000000000000000   -0.0000000000000000   11.1003847944368736
Mg Sc Se
7 16 32
direct
   0.4992302497221918    0.9891593072921688    0.5048940312327030 Mg
   0.2325464835257401    0.7550171470964940    0.7441833894984363 Mg
   0.4904663193709773    0.5144533958671890    0.0021154302033431 Mg
   0.7601271973980204    0.2584326387800065    0.7488434292733328 Mg
   0.1399106532565021    0.1506640986488378    0.1552468225192996 Mg
   0.7583660590049359    0.7326814190606957    0.2551593892094847 Mg
   0.0071756662752774    0.5019023365421214    0.5025043427444849 Mg
   0.1242897777486357    0.8754374395410491    0.3746902873685273 Sc
   0.3799566644229337    0.1172625930619124    0.8664339146886681 Sc
   0.3748317236421658    0.3752153473720765    0.6251741999251866 Sc
   0.1317058406156834    0.1244551433972858    0.6323652231170565 Sc
   0.1275750098948240    0.3729395071572352    0.8768314801520383 Sc
   0.3785753967451128    0.6455525376115582    0.3715545420433523 Sc
   0.3619215182463725    0.8725006495327184    0.1236241529543535 Sc
   0.1261572694251105    0.6218335272033200    0.1223757922314355 Sc
   0.6344631280792032    0.8638004130306192    0.8794368334365494 Sc
   0.8716661553924588    0.1420760603133354    0.3830564937174687 Sc
   0.8720708058310866    0.3834805689477354    0.1030942683680654 Sc
   0.6410865939756785    0.1234211469565864    0.1143234619301058 Sc
   0.6386103172467759    0.3979630798692992    0.3770384360955192 Sc
   0.8634283010892669    0.6250530282593565    0.8713893359068240 Sc
   0.8766953068682692    0.8736958290390742    0.6129852962484085 Sc
   0.6373025719995704    0.6267438715075387    0.6396501967008644 Sc
   0.3907475036841566    0.1254780030611858    0.1147804423204449 Se
   0.5957794599211087    0.3907407989973053    0.6158261198829573 Se
   0.6043348202482020    0.1025630895426087    0.8944026149511739 Se
   0.3722900386404177    0.3690819861088797    0.3995359706514999 Se
   0.3821561976830076    0.1305915342561234    0.6230084450444074 Se
   0.1349890650222446    0.8717852338995165    0.1320291008470774 Se
   0.1164184026443714    0.1416055031486745    0.8490085029710261 Se
   0.3656649463399576    0.8652279985779646    0.3653040578551002 Se
   0.3792732062277600    0.6341397614787394    0.6367078919766649 Se
   0.6150769178116486    0.8835091337777730    0.1271433543979203 Se
   0.6309992520209702    0.6210074345747835    0.3718385634538240 Se
   0.3851484826933649    0.9001138764805120    0.8954206166750284 Se
   0.3550614340927929    0.6118454307738940    0.1292059456406998 Se
   0.1303555882842475    0.3594162225381208    0.6338289907862683 Se
   0.1397997806473905    0.6445756323420694    0.3555237885622268 Se
   0.3733313618262947    0.3756692321868617    0.8564549454287969 Se
   0.8765311196674154    0.1232348415146593    0.6198658149790129 Se
   0.1116192308917227    0.3774603775207809    0.1174717692780767 Se
   0.1026196605830533    0.1229739879645154    0.3970305653553545 Se
   0.8831199533945392    0.3983991492423802    0.8985622059853940 Se
   0.8772971627924516    0.1238116682166748    0.1391395930055120 Se
   0.6304057823602471    0.8612345574835344    0.6228700868959319 Se
   0.6346199096850406    0.1313186428407026    0.3668332779390344 Se
   0.8655861914704343    0.8769679179081769    0.8729009498580306 Se
   0.8818161476858867    0.6193391763472086    0.1107226381610703 Se
   0.1111865340348234    0.8826415886816101    0.6164875827137422 Se
   0.1221572746463211    0.6281010604101137    0.8860734893304477 Se
   0.8893954587351318    0.8814878791591164    0.3730749424224549 Se
   0.8594664988749419    0.6298819190885184    0.6294194007659957 Se
   0.6288446763136923    0.3682933656964015    0.1379713439688712 Se
   0.6326048953959087    0.6316858807146344    0.8662952155400913 Se
   0.8694269507156012    0.3698466006327322    0.3473820540670753 Se
