Mg7 Sc16 Se32
1.0
  11.1003847944368736    0.0000000000000000    0.0000000000000000
   0.0000000000000000   11.1003847944368736    0.0000000000000000
  -0.0000000000000000   -0.0000000000000000   11.1003847944368736
Mg Sc Se
7 16 32
direct
   0.5032994351597522    0.9988686668493539    0.4946696960078650 Mg
   0.2497538396481689    0.7341856742046656    0.7449183513932655 Mg
   0.5021092308677377    0.5058173404800400    0.9881905135462358 Mg
   0.7521261075902032    0.2497447739711804    0.7509152923239090 Mg
   0.9795281193127291    0.0064296440431457    0.9977640804773187 Mg
   0.7640558138368343    0.7558264496687724    0.2563111791032073 Mg
   0.1633624175460649    0.3080617314306228    0.2216654568234032 Mg
   0.1309273639984543    0.8662408337354277    0.3978986712503368 Sc
   0.3862384138661431    0.1332670787956556    0.8757814464980965 Sc
   0.3756119017388380    0.3745144042643526    0.6248844896366381 Sc
   0.1239433423546981    0.1265892742998296    0.6181043837789514 Sc
   0.1336867571069149    0.3746792579490419    0.8738100838604836 Sc
   0.3767392904951635    0.6368005287208696    0.3704347178127033 Sc
   0.3713062430700121    0.8885946149424657    0.1168908562129736 Sc
   0.1377777742708265    0.6281628568731031    0.1164521547404358 Sc
   0.6085435178589097    0.8834652047230747    0.8625350690818112 Sc
   0.8775259628526093    0.1247213866594049    0.3857375356379552 Sc
   0.8813222020975330    0.3748667601944577    0.1185046748206137 Sc
   0.6163042845385678    0.1121859050313039    0.1123043256194831 Sc
   0.6424552417711582    0.3633859160581768    0.3783634241672777 Sc
   0.8818881064363702    0.6013137036786118    0.8640563767005013 Sc
   0.8711972440316175    0.8969648178238784    0.6360308259486106 Sc
   0.6316691557566506    0.6128639045236602    0.6310915410881262 Sc
   0.3849151653013765    0.1105099472430641    0.1010346096513113 Se
   0.6262634601573641    0.3881363492108889    0.6179315318030337 Se
   0.6128300353600116    0.1117620231671918    0.8805273160038801 Se
   0.3826077762746422    0.3813131548620380    0.3812987760041420 Se
   0.3527900073029682    0.1407367138734998    0.6189420979883571 Se
   0.1332117048437622    0.8588190849605349    0.1378853047251535 Se
   0.1374723812420107    0.1246123639488579    0.8664297237502501 Se
   0.3681756724874412    0.8654310053839250    0.3704844324221162 Se
   0.3838008028762691    0.6199842433844193    0.6137876097733098 Se
   0.6288850991224803    0.8667238794381324    0.1131364334605670 Se
   0.6182686059029630    0.6197412773494575    0.3911597469767591 Se
   0.3712002316410336    0.8988409765227268    0.8776026724952705 Se
   0.3665036813503163    0.6272039012422872    0.1323308157197956 Se
   0.1444129238537571    0.3729309685237139    0.6420934289710659 Se
   0.1314635403733965    0.6366223353563563    0.3415976975505516 Se
   0.3600727198481143    0.3702892597853653    0.8592412868403735 Se
   0.8683546682499492    0.1003589255104770    0.6192499642670520 Se
   0.1261759048672722    0.3791092532109955    0.1060160466454305 Se
   0.1345369626843295    0.1126500187497548    0.3908649976886087 Se
   0.8960843760709832    0.3833751470868743    0.8904230905417425 Se
   0.8698433809727252    0.1316617117772256    0.1158531623333155 Se
   0.6380414349164175    0.8470288592076898    0.6361068405971126 Se
   0.6432131765057187    0.1272788383665650    0.3757757558112707 Se
   0.8601961504154360    0.8561790122138200    0.8604085658909280 Se
   0.8875111249634932    0.5971028623082641    0.1280699877976039 Se
   0.1326578387050755    0.8770307173375866    0.6349955116505518 Se
   0.1168680572896704    0.6236083187715747    0.8883529088344281 Se
   0.8661160599610034    0.8886102147690170    0.3925655126791531 Se
   0.8656209676305131    0.6198752591288300    0.6327388332418004 Se
   0.6330225907556729    0.3666770866482989    0.1326841420116628 Se
   0.6323356570652047    0.6451434728293352    0.8636079276305283 Se
   0.8657557840273294    0.3598380555023691    0.3498158738937912 Se
