Mg7 Sc16 Se32
1.0
  11.1003847944368736    0.0000000000000000    0.0000000000000000
   0.0000000000000000   11.1003847944368736    0.0000000000000000
  -0.0000000000000000   -0.0000000000000000   11.1003847944368736
Mg Sc Se
7 16 32
direct
   0.4880916235645658    0.0071350062651362    0.5040856993290411 Mg
   0.2357869232068189    0.7421817870687771    0.7643034174006130 Mg
   0.1692990165567344    0.2337740626086348    0.2537413760822423 Mg
   0.7556900742682439    0.2528029915501649    0.7501593429050727 Mg
   0.9881909504364206    0.0128935586298716    0.0137682401424120 Mg
   0.7451241678814648    0.7267196485759780    0.2493768001950430 Mg
   0.9976672795050313    0.5035315258186296    0.5180030791642241 Mg
   0.1378738624399135    0.8608395062296141    0.3815328495495369 Sc
   0.3750943546031612    0.1353651920827595    0.8787192704101356 Sc
   0.3752848518616232    0.3774057432675831    0.6133019922966386 Sc
   0.1298331397178957    0.1217773374368133    0.6269804610430486 Sc
   0.1104779033242478    0.3710217157982077    0.8662341913841353 Sc
   0.3746107143570683    0.6235887464860776    0.3771800967362554 Sc
   0.3727914347220188    0.8734623616750335    0.1238412145550427 Sc
   0.1296176798676215    0.6362770361173553    0.1038807948400289 Sc
   0.6267272946791974    0.8822801664104410    0.8702968328740642 Sc
   0.8734419802419179    0.1121078811338277    0.3755317854935865 Sc
   0.8979798712171648    0.3711781401472927    0.1223112446921118 Sc
   0.6162990951773679    0.1313891634926350    0.1145843687157238 Sc
   0.6308543977126483    0.3689797274602838    0.3554385518137978 Sc
   0.8748608417396400    0.6249940439849579    0.8752605522559161 Sc
   0.8908804997257069    0.8862172471006052    0.6303598450823193 Sc
   0.6415538164440392    0.6383857861875186    0.6339800807489824 Sc
   0.3758124986845189    0.1158890652496846    0.1162269746581173 Se
   0.6210069380613000    0.3833630662433166    0.6175967653547698 Se
   0.6193001981970189    0.1173342518350835    0.8813081420414043 Se
   0.3831392761048023    0.3796954811750284    0.3823657244476215 Se
   0.3683437898620877    0.1337341923405456    0.6253397770718632 Se
   0.1311556114359704    0.8741521224155773    0.1371737539135705 Se
   0.1556704106089400    0.1467357750505431    0.8657783141422836 Se
   0.3651838998212074    0.8651044036424497    0.3654775107002335 Se
   0.3971995578272329    0.6328919264816736    0.6170644094864678 Se
   0.6209837442525523    0.8901663801672730    0.1156150418447390 Se
   0.6295657009518443    0.6241412267192515    0.3763179668152067 Se
   0.3828595692315773    0.8821768499698952    0.8829727738995523 Se
   0.3785993482453923    0.6330539910992885    0.1342891281488461 Se
   0.1381326485509902    0.3928952097232806    0.6358787420029914 Se
   0.1318966189505168    0.6333039001762489    0.3650866667231217 Se
   0.3669650648084329    0.3631414640546582    0.8696729850701274 Se
   0.8827784559090237    0.1069817711036550    0.6170542767765844 Se
   0.1138088147968975    0.3826309869214254    0.1136937204242216 Se
   0.1279839965617944    0.1325591223180052    0.3740878817545707 Se
   0.8837619233701303    0.3881008914742791    0.8693215398416363 Se
   0.8663222473796985    0.1325606675926139    0.1320516808375604 Se
   0.6307239232801768    0.8620236170161415    0.6358090452656134 Se
   0.6216698461979963    0.1398210388627876    0.3576505701143324 Se
   0.8755394209591312    0.8758033403330707    0.8823112617837445 Se
   0.8852449481137851    0.6362964076137254    0.0990393328035286 Se
   0.1071627558298923    0.8938033602195381    0.6112439538784792 Se
   0.1239576816033248    0.6127060981261359    0.8698530371352656 Se
   0.8822413192885344    0.8842493690620108    0.3823314678791933 Se
   0.8664815296350165    0.6495985343311370    0.6134884586772680 Se
   0.6266562197025076    0.3532158546418899    0.1139189128898006 Se
   0.6465845249163144    0.6366209628160560    0.8649791705611886 Se
   0.8698063109429676    0.3558630141071251    0.3792021161438518 Se
