Mg7 Sc16 Se32
1.0
  11.1003847944368736    0.0000000000000000    0.0000000000000000
   0.0000000000000000   11.1003847944368736    0.0000000000000000
  -0.0000000000000000   -0.0000000000000000   11.1003847944368736
Mg Sc Se
7 16 32
direct
   0.5014946343123285    0.0017096984057194    0.4965464792619110 Mg
   0.2546305059249478    0.7524022142181090    0.7554469436186158 Mg
   0.3254715361580469    0.3126709075979222    0.1719801103727155 Mg
   0.7480701313838629    0.2481740785760092    0.7505064252344688 Mg
   0.0019880699678683    0.0030166238159340    0.0013894590588106 Mg
   0.7490410773681199    0.7456620991274518    0.2512458069430166 Mg
   0.0028103294061479    0.5039717449810325    0.5019960982630046 Mg
   0.1221891451675552    0.8757349646091735    0.3741453525039664 Sc
   0.3749883602742164    0.1219800853843892    0.8743841039935774 Sc
   0.3735503531308321    0.3771134823682294    0.6224202393574826 Sc
   0.1263815674543623    0.1244543407143942    0.6286897361980326 Sc
   0.1250906407555727    0.3796136491451173    0.8763654832069374 Sc
   0.3755572942791401    0.6281225781627878    0.3776666933877811 Sc
   0.3750644815411340    0.8687637468659265    0.1266766815129053 Sc
   0.1230630047059964    0.6259584376537262    0.1226387133277727 Sc
   0.6258934499036241    0.8777706660537530    0.8770002612989948 Sc
   0.8740942415596983    0.1260576648715931    0.3754995223055170 Sc
   0.8744751962303894    0.3738919445930927    0.1253389007171812 Sc
   0.6255461419829461    0.1262288940925546    0.1312335296347727 Sc
   0.6228669064054916    0.3711416621389642    0.3786024310386081 Sc
   0.8741896082393816    0.6232732298332397    0.8705194621499154 Sc
   0.8752967795904470    0.8702432939745409    0.6240625363033747 Sc
   0.6224856953216641    0.6209307797088168    0.6233769038015792 Sc
   0.3810404628380329    0.1186724212606911    0.1179235709601830 Se
   0.6103389234124083    0.3827155779441033    0.6176169467180892 Se
   0.6157989521121834    0.1199712989636220    0.8818987956037034 Se
   0.3799683191633793    0.3829967764071096    0.3821470594275442 Se
   0.3681154069712146    0.1363200483197740    0.6322168472844217 Se
   0.1333437994175805    0.8668606606421205    0.1334134206564816 Se
   0.1330203228232853    0.1271390757128779    0.8679742969750984 Se
   0.3648342127201072    0.8627426857806935    0.3687666072375469 Se
   0.3804518150458067    0.6215251945602852    0.6179790513633281 Se
   0.6201780284631301    0.8885589244490960    0.1178650680422844 Se
   0.6153831460242875    0.6165884311899487    0.3840561067787011 Se
   0.3783326444045483    0.8854161283785731    0.8781672284773201 Se
   0.3671016430436270    0.6332296963533908    0.1331118353510645 Se
   0.1340314484240792    0.3689433390963824    0.6303906616940722 Se
   0.1362075607816812    0.6270310279582884    0.3647983225688276 Se
   0.3725494928543060    0.3648753504951569    0.8685140668387015 Se
   0.8767273947696291    0.1142800018309572    0.6178551213785081 Se
   0.1189344838726404    0.3825250683793876    0.1179565346365498 Se
   0.1156424998450778    0.1171707378534708    0.3798288843702600 Se
   0.8773991578495327    0.3867202974120728    0.8823491026422241 Se
   0.8680286016509328    0.1284902533941054    0.1355845797792707 Se
   0.6321948044431649    0.8636178643993840    0.6312212067887784 Se
   0.6315735541972146    0.1365885265033859    0.3608029970866213 Se
   0.8666343331031948    0.8666734342606145    0.8674396346542869 Se
   0.8825062175007610    0.6192261000316830    0.1221363796426831 Se
   0.1165380509145805    0.8843602142652368    0.6217324233584672 Se
   0.1188970926228031    0.6130059055384610    0.8875891208098835 Se
   0.8849983723748122    0.8826798316019623    0.3871796928298204 Se
   0.8670976603761789    0.6303552195380023    0.6302711354293563 Se
   0.6307946501974055    0.3637739500755305    0.1318798217329564 Se
   0.6314932498349797    0.6374134161850469    0.8634006182944771 Se
   0.8702155854369807    0.3717580628044049    0.3633995955518139 Se
