Mg7 Sc16 Se32
1.0
  11.1003847944368736    0.0000000000000000    0.0000000000000000
   0.0000000000000000   11.1003847944368736    0.0000000000000000
  -0.0000000000000000   -0.0000000000000000   11.1003847944368736
Mg Sc Se
7 16 32
direct
   0.4992685824845670    0.9971354779911072    0.4979243111475681 Mg
   0.2513609699929520    0.7486580462183411    0.7494506149929872 Mg
   0.5132984839787007    0.4921875117752799    0.9938830895999610 Mg
   0.7502843345199643    0.2449226249512379    0.7383217236272077 Mg
   0.0830539753287632    0.0970130849499140    0.1205575396666724 Mg
   0.7692581988324009    0.7481643300852534    0.2478799228416317 Mg
   0.9985129077401275    0.4983769459176680    0.4862701987715162 Mg
   0.1195509543439935    0.8765413919478359    0.3818276975063135 Sc
   0.3768052599485857    0.1367413644792955    0.8598166066016348 Sc
   0.3751361348050251    0.3773311450272993    0.6253769650864673 Sc
   0.1294530294180667    0.1333350288564399    0.6088781439702547 Sc
   0.1276439000396253    0.3727141975928113    0.8778044719207843 Sc
   0.3736246963804583    0.6267095061342501    0.3750170790385632 Sc
   0.3641381806588136    0.8789417064592058    0.1161518120134604 Sc
   0.1361400121690487    0.6170487267488822    0.1251533253765027 Sc
   0.6229822669469041    0.8742536023342823    0.8758286532524371 Sc
   0.8651714790133829    0.1113784512727498    0.3678233023301628 Sc
   0.8759094512243077    0.3747217132607306    0.1265488325962721 Sc
   0.6317849251301065    0.1255041084470256    0.1227522138306258 Sc
   0.6281146854931547    0.3759855150186550    0.3585286670329266 Sc
   0.8838348157853561    0.6231752550990641    0.8836989615004158 Sc
   0.8737723666770625    0.8750360441381655    0.6262462558354336 Sc
   0.6231174947126963    0.6200937645092990    0.6265605850177414 Sc
   0.3994600947998016    0.1149306831830913    0.1285208606417172 Se
   0.6237406400116753    0.3816281793190702    0.6000201388786754 Se
   0.6212072109020799    0.1216267450782650    0.8704651251715125 Se
   0.3944964055491761    0.3901154482048135    0.3754530022087528 Se
   0.3668288668930856    0.1331241633681440    0.6317551934971636 Se
   0.1275389545572532    0.8783424228493348    0.1316364005109896 Se
   0.1313325502089963    0.1385663182228349    0.8690962477908883 Se
   0.3840901447189366    0.8657675367300952    0.3716843977967921 Se
   0.3772658371198715    0.6231966869395756    0.6095944665337453 Se
   0.6034239344722396    0.8899894539033478    0.1065237105499952 Se
   0.6162043153498769    0.6180016176053544    0.3818928459409444 Se
   0.3767139255589378    0.8844529517789675    0.8800785821977909 Se
   0.3835910290015960    0.6265553818686110    0.1395229093745091 Se
   0.1206343689251891    0.3753849467390142    0.6380494522883949 Se
   0.1384902270602265    0.6353208072484635    0.3635213952722667 Se
   0.3677722132126612    0.3775268503302412    0.8676216057759599 Se
   0.8829630668405110    0.1171004524930119    0.6171357204247779 Se
   0.1125044058972012    0.3699442630897083    0.1124437740557742 Se
   0.1165690219660290    0.1186938136248320    0.3802211656015162 Se
   0.8889644565429240    0.3815034792975786    0.8712598946508636 Se
   0.8547570500260334    0.1329458469982066    0.1217131218887513 Se
   0.6303548264241161    0.8765159472228007    0.6282297454466488 Se
   0.6231537366175783    0.1391878840581064    0.3548748432929414 Se
   0.8700475524503359    0.8606797648234096    0.8709680825068720 Se
   0.8847185451368795    0.6365697372015203    0.1206036634008843 Se
   0.1213124054640215    0.8871037069834196    0.6089736548502507 Se
   0.1193954333320445    0.6168719753586542    0.8829862526635907 Se
   0.8771367082417950    0.8945595594376270    0.3729090618111397 Se
   0.8683748873352605    0.6334110790604734    0.6324638444341524 Se
   0.6339497183119508    0.3684167095781999    0.1321457421922919 Se
   0.6346540819747644    0.6300868148794894    0.8624605185472121 Se
   0.8628767814474024    0.3586013140879190    0.3597994022833551 Se
