Mg7 Sc16 Se32
1.0
  11.1003847944368736    0.0000000000000000    0.0000000000000000
   0.0000000000000000   11.1003847944368736    0.0000000000000000
  -0.0000000000000000   -0.0000000000000000   11.1003847944368736
Mg Sc Se
7 16 32
direct
   0.2747208650610133    0.2209827395240264    0.2848142515223908 Mg
   0.2535427534134646    0.7456275817847373    0.7452147985475008 Mg
   0.4993066931673069    0.4999346510375485    0.0003985082912835 Mg
   0.7497036271900860    0.2505024781694049    0.7492033042974225 Mg
   0.9976592154822679    0.0007920846575227    0.0011403655602882 Mg
   0.7535983134887613    0.7509784706476033    0.2487127803055057 Mg
   0.0079983736260204    0.4918957833901608    0.5021327173637058 Mg
   0.1225381993009230    0.8677944105568631    0.3721526044567223 Sc
   0.3804002867631573    0.1333529645103777    0.8768659300670660 Sc
   0.3764418584307646    0.3713984130495807    0.6249129550158552 Sc
   0.1132952442329949    0.1247565085548474    0.6293979143592420 Sc
   0.1234327692547709    0.3805949173539797    0.8630815197530536 Sc
   0.3763378894687338    0.6237999586497684    0.3711417479628447 Sc
   0.3676546785893873    0.8761070288412403    0.1310895188884762 Sc
   0.1214169907823303    0.6212663293096482    0.1273997298745718 Sc
   0.6190524257272810    0.8775066476705974    0.8805877476601904 Sc
   0.8723845265998831    0.1166993206053264    0.3823004600690961 Sc
   0.8725735568654315    0.3782921017920429    0.1183880790445894 Sc
   0.6270075979277685    0.1255312277787989    0.1242390359185290 Sc
   0.6198517738447992    0.3787497529258609    0.3651320354525244 Sc
   0.8760758693324386    0.6276239797992830    0.8721363134888723 Sc
   0.8873330597672829    0.8700961849914517    0.6292150133379882 Sc
   0.6296544365813346    0.6167592521252614    0.6190285900218914 Sc
   0.3831895689300643    0.1207886274381771    0.1223412642526319 Se
   0.6073508692354744    0.3921894326159592    0.6203286309341409 Se
   0.6175867195699990    0.1161936533207781    0.8824943247879674 Se
   0.3741325384235766    0.3872187945571252    0.3771435590794798 Se
   0.3577834180012948    0.1407390594088112    0.6343217227380447 Se
   0.1430118049323557    0.8691413652622203    0.1367333057640517 Se
   0.1309993430182254    0.1319448309300941    0.8696072033777031 Se
   0.3580039122472591    0.8597276778821785    0.3603708689106608 Se
   0.3809364239215673    0.6200792461344773    0.6160481475828979 Se
   0.6256895044780593    0.8774082498287177    0.1136555013525183 Se
   0.6204385563499186    0.6186200013185237    0.3866507676911813 Se
   0.3761880788244937    0.8857796836121147    0.8946303177156925 Se
   0.3619980544383343    0.6285910155674518    0.1311186069041057 Se
   0.1270865730307199    0.3691567071393192    0.6350063827391310 Se
   0.1291748333480168    0.6385085268433884    0.3654075269058995 Se
   0.3725373676767871    0.3670936444149612    0.8627148821259981 Se
   0.8800578820499971    0.1095105678693441    0.6241070854846701 Se
   0.1156677860883297    0.3820257313543542    0.1159311310520861 Se
   0.1124957103236071    0.1192591883870285    0.3833216473554993 Se
   0.8835724825083617    0.3809007365581407    0.8854498470532307 Se
   0.8666496269948165    0.1330866601691365    0.1322289759679931 Se
   0.6292867045112261    0.8614851892125768    0.6382011638668904 Se
   0.6204187762516453    0.1333388274965409    0.3731951989102866 Se
   0.8646224820460473    0.8759736234687456    0.8656150157309085 Se
   0.8772279692798963    0.6262223181387345    0.1171129777644552 Se
   0.1224040509110744    0.8720005092011232    0.6184954922906052 Se
   0.1184333336840665    0.6106465650314641    0.8839710344302134 Se
   0.8829736310259829    0.8828984073917393    0.3828377391962930 Se
   0.8690792768159105    0.6386318330206830    0.6312549972361567 Se
   0.6320915267290913    0.3700393014707417    0.1325012693907142 Se
   0.6333415683938157    0.6310851899639423    0.8749690489669055 Se
   0.8702882892260208    0.3714667267779936    0.3683585781131314 Se
