Mg7 Sc16 Se32
1.0
  11.1003847944368736    0.0000000000000000    0.0000000000000000
   0.0000000000000000   11.1003847944368736    0.0000000000000000
  -0.0000000000000000   -0.0000000000000000   11.1003847944368736
Mg Sc Se
7 16 32
direct
   0.4897723605941391    0.0021331799225244    0.4907690362207754 Mg
   0.1658123004328320    0.2356070548414212    0.1740267798184866 Mg
   0.4988101846987807    0.5101522208522992    0.0056200958573160 Mg
   0.7363094723774447    0.2546305846087860    0.7406003327849641 Mg
   0.0197136505137214    0.9891344913056686    0.0021990814734296 Mg
   0.7381393395688735    0.7546198618487389    0.2475762178507683 Mg
   0.9992125040333901    0.5044013776872909    0.5147405641602741 Mg
   0.1271623845585711    0.8730545691356625    0.3767560793929019 Sc
   0.3722618502224314    0.1252469726272026    0.8771016834858192 Sc
   0.3700136762021224    0.3699466115394260    0.6163066254743360 Sc
   0.1183639072217551    0.1347441564340171    0.6140880548970679 Sc
   0.1237541726363621    0.3760451660198686    0.8752443980205530 Sc
   0.3748539200893549    0.6247298378304144    0.3748903179615278 Sc
   0.3912496358873173    0.8754731739828573    0.1260193068176867 Sc
   0.1508908365297446    0.6249394794318730    0.1227993313949118 Sc
   0.5999778547106118    0.8738908081045971    0.8769481509359668 Sc
   0.8752249211265197    0.1249691506368699    0.3751987829879733 Sc
   0.8920719924452779    0.3832692244690902    0.1205284010989163 Sc
   0.6300938934516065    0.1227879951795168    0.1211108554062271 Sc
   0.6152758557743265    0.3733308178773119    0.3580964593525070 Sc
   0.8788724052395361    0.6232969254618340    0.8976802529646197 Sc
   0.8626075847086787    0.8796262847953746    0.6184008736303817 Sc
   0.6241651129185692    0.6244959335313991    0.6505989980128926 Sc
   0.3831506116869184    0.1173072130826433    0.1175230064358662 Se
   0.6287137601612579    0.3658957835205213    0.6306655092010326 Se
   0.6372896623704605    0.1187903391443419    0.8752017052038689 Se
   0.3771516272928352    0.3762785473193720    0.3907423603859015 Se
   0.3658057834153867    0.1344432008797179    0.6313056419878250 Se
   0.1443093297623962    0.8675971983927510    0.1113862211146259 Se
   0.1456009508940484    0.1501946217877886    0.8654053996695167 Se
   0.3537811712316928    0.8571839838151372    0.3591047634849729 Se
   0.3878018048887629    0.6104188063429145    0.6281574046719365 Se
   0.6169356414970134    0.8847802710949246    0.1176025824777591 Se
   0.6176416413683798    0.6196994591772407    0.3856145567900343 Se
   0.3813882339278485    0.8974068384818171    0.8814867306632685 Se
   0.3642628352573232    0.6338664433092791    0.1302097640232446 Se
   0.1504977544188506    0.3600936011751755    0.6378822642332189 Se
   0.1367739455235213    0.6460190832002219    0.3762160981578656 Se
   0.3712526196130554    0.3737405028370815    0.8593450946681820 Se
   0.8882591959996142    0.1133637493613484    0.6123953922813882 Se
   0.1255149687493527    0.3679696246893688    0.0975812083382444 Se
   0.1030340245734121    0.1303668327598451    0.3907711459372049 Se
   0.8704001647503539    0.3682138130414446    0.8989374056808254 Se
   0.8621628725383833    0.1294953611861318    0.1308292442239697 Se
   0.6388887730758445    0.8761822027090317    0.6183117512274718 Se
   0.6232586357337047    0.1340009120289480    0.3620236725868867 Se
   0.8659412561423319    0.8568883161509757    0.8590251006401856 Se
   0.8782666936326325    0.6058623510546829    0.1089365683357574 Se
   0.1209178437284671    0.8860920848953977    0.6171220062675863 Se
   0.1368599623811242    0.6206822112808150    0.8754826617604653 Se
   0.8764463386033712    0.8775460484192797    0.3817298946645720 Se
   0.8702130465405016    0.6365323520997471    0.6341440116991675 Se
   0.6436115622442401    0.3798680978737532    0.1471890016105345 Se
   0.6304682767576533    0.6263928145160744    0.8635219126893325 Se
   0.8643939247517992    0.3661588565322413    0.3603215413824899 Se
