Mg7 Sc16 Se32
1.0
  11.1003847944368736    0.0000000000000000    0.0000000000000000
   0.0000000000000000   11.1003847944368736    0.0000000000000000
  -0.0000000000000000   -0.0000000000000000   11.1003847944368736
Mg Sc Se
7 16 32
direct
   0.5028300073180701    0.0092096571044190    0.5039711853011093 Mg
   0.2432832491962369    0.7479048577714671    0.7517124049482667 Mg
   0.4985570544562551    0.4979192795867262    0.9979934614171995 Mg
   0.7491050408582742    0.2583088146410090    0.7404268931201144 Mg
   0.9925639049494649    0.0093752779474863    0.0046451020310571 Mg
   0.7469410590706216    0.7500597817152557    0.2528742563850558 Mg
   0.1255704801597772    0.3338147713305767    0.2984404286246387 Mg
   0.1118647721829126    0.8770560309612905    0.3731591904850216 Sc
   0.3741090541070355    0.1273576348158799    0.8792016925176371 Sc
   0.3700637657150504    0.3865042010987858    0.6257096778975326 Sc
   0.1371123100421363    0.1256015142933260    0.6264217165666379 Sc
   0.1246234164805247    0.3752254962277011    0.8762866504506540 Sc
   0.3755426801293484    0.6249011180254403    0.3762484228422289 Sc
   0.3671324284577910    0.8677338776817075    0.1256190666084666 Sc
   0.1232398104910610    0.6274759376726036    0.1233652988283040 Sc
   0.6224276883991589    0.8798886310705586    0.8792494514644326 Sc
   0.8833652719935532    0.1244660299812743    0.3653734476872089 Sc
   0.8741631492313131    0.3715033282063865    0.1245292359950069 Sc
   0.6262248010140007    0.1235794935625553    0.1247901996866063 Sc
   0.6188650721373329    0.3804910259602365    0.3645721533902150 Sc
   0.8777053794659785    0.6258286966593517    0.8748828429235641 Sc
   0.8698612842962162    0.8677100168009209    0.6349836460205166 Sc
   0.6257307753328264    0.6228529687933163    0.6257461760853535 Sc
   0.3823766669389906    0.1144922092937939    0.1167945977476110 Se
   0.6124433026069641    0.3800050965430016    0.6168204046886054 Se
   0.6155027312127979    0.1202232298499250    0.8850268023387036 Se
   0.3785577625808271    0.3827652031630236    0.3813636793716474 Se
   0.3688497835639319    0.1226870742232673    0.6278678196230590 Se
   0.1352785423031465    0.8623312111873520    0.1398975570680836 Se
   0.1278593336021675    0.1312488007192809    0.8640645015968729 Se
   0.3763324013888731    0.8743200347945101    0.3681332752594256 Se
   0.3898124836228868    0.6171924436476762    0.6099379415685550 Se
   0.6144767151840733    0.8918744077642051    0.1103962139350548 Se
   0.6169934987283189    0.6171355468374730    0.3827639532700153 Se
   0.3762671912707842    0.8787476548510801    0.8803163166580031 Se
   0.3660615216321812    0.6302214673574440    0.1191115366182075 Se
   0.1310715297002690    0.3726887308288394    0.6304633653010830 Se
   0.1309110576473880    0.6366792831342316    0.3616374593421674 Se
   0.3658201969119455    0.3657930059566183    0.8728303649019545 Se
   0.8915394037150930    0.1164446418227702    0.6059852113951565 Se
   0.1163318938318147    0.3840453433980976    0.1192410775196021 Se
   0.1155170132205160    0.1089546590531924    0.3799973147425363 Se
   0.8894167253736102    0.3813037934242430    0.8850386876700702 Se
   0.8628055910299448    0.1351248498097301    0.1349434488641238 Se
   0.6289112210385133    0.8651007768826579    0.6285590283191467 Se
   0.6288049330595172    0.1336016250636144    0.3582035847882231 Se
   0.8696957777153149    0.8678370752749576    0.8730563287254753 Se
   0.8829848904911169    0.6170644717989934    0.1171233057749939 Se
   0.1168467555482043    0.8840920154028435    0.6170079177537523 Se
   0.1248838958679720    0.6130801622130719    0.8822594151713378 Se
   0.8832450572279655    0.8765340389832167    0.3792508613954347 Se
   0.8759256236815993    0.6270650855566626    0.6324417719638010 Se
   0.6393775779081158    0.3577433290389075    0.1379182954038281 Se
   0.6323222050871214    0.6325898191759213    0.8681282908755004 Se
   0.8664276913097504    0.3653807723711687    0.3672773412596040 Se
