Mg7 Sc16 Se32
1.0
  11.1003847944368736    0.0000000000000000    0.0000000000000000
   0.0000000000000000   11.1003847944368736    0.0000000000000000
  -0.0000000000000000   -0.0000000000000000   11.1003847944368736
Mg Sc Se
7 16 32
direct
   0.5076510292471255    0.9866652575005833    0.4898197433076487 Mg
   0.2342156237861263    0.7674559952395303    0.7466384580848303 Mg
   0.5020163807414036    0.5186321660607054    0.0044009623212509 Mg
   0.7533056853000605    0.2435849895979141    0.7370150577228957 Mg
   0.9999512120417218    0.9999182469531587    0.9998413384004513 Mg
   0.7377028760276121    0.7502264371017232    0.2498142846857321 Mg
   0.1865495655272994    0.3241467396210185    0.3200947770169159 Mg
   0.1229922309673401    0.8825831799638845    0.3770713367207824 Sc
   0.3770213020253266    0.1207805980781941    0.8628528219036198 Sc
   0.3762802229997400    0.3810261721720473    0.6283349054137617 Sc
   0.1267578125479202    0.1287348327592075    0.6162752310611530 Sc
   0.1176763066708737    0.3614747512042144    0.8863535817774019 Sc
   0.3781283619172856    0.6278929996995493    0.3724673348175481 Sc
   0.3706659002167707    0.8714879984099326    0.1048204865128425 Sc
   0.1367584304258668    0.6135130421686683    0.1289765117545035 Sc
   0.6330360391801649    0.8759102214805987    0.8879591434610171 Sc
   0.8845980295780022    0.1418187574002331    0.3681892040710696 Sc
   0.8703217008300492    0.3768360887496586    0.1258552193763167 Sc
   0.6235136552026870    0.1243752734373815    0.1314275192545319 Sc
   0.6273577722479627    0.3685797662119109    0.3745468572597460 Sc
   0.8737123378578743    0.6308800856462393    0.8833419947437380 Sc
   0.8890427272591443    0.8672342496633181    0.6210882776085775 Sc
   0.6186573949713354    0.6301478909112050    0.6026187179143953 Sc
   0.3690015178835542    0.1156335888308726    0.1211237204127467 Se
   0.6247530343344968    0.3810199420700319    0.6190853477273469 Se
   0.6338935630584787    0.1122688954648056    0.8640665974464585 Se
   0.3711797270233879    0.3812734877572568    0.3845680461344378 Se
   0.3600102181984918    0.1255083020337450    0.6327009912075707 Se
   0.1221950065063036    0.8767516040088053    0.1333906332518345 Se
   0.1353969671145440    0.1401248444799408    0.8804795920388784 Se
   0.3664206203319766    0.8656956223370970    0.3679689562504564 Se
   0.3764768668444207    0.6160545663658419    0.6191605376638030 Se
   0.6231645091271396    0.8779500367647742    0.1148540398390876 Se
   0.6132467931332506    0.6168943874729608    0.3860238208513039 Se
   0.3635961907568239    0.8791893256868860    0.8669673478545079 Se
   0.3724275025159188    0.6256016078915263    0.1423007426402942 Se
   0.1507523280818352    0.3628895613069900    0.6327033419082808 Se
   0.1326905609362927    0.6340022885802256    0.3669623338810894 Se
   0.3645877218836588    0.3676295301148336    0.8676279700119047 Se
   0.8888867482255327    0.1169364094855975    0.6157986420866002 Se
   0.1154647509002660    0.3790249000130101    0.1183822462972337 Se
   0.1103352506182426    0.1207223834471345    0.3710797477942234 Se
   0.8771546842627940    0.4048808463438783    0.8888702994665314 Se
   0.8663206524684589    0.1389924362265081    0.1298959327901234 Se
   0.6190335656348405    0.8544850657597123    0.6348897075422799 Se
   0.6429476289262518    0.1408315951306143    0.3462638006681347 Se
   0.8675737271396147    0.8706062779997714    0.8662838882812151 Se
   0.8761301552667646    0.6105292100579088    0.1362285491397376 Se
   0.1225809550835800    0.8881202732654594    0.6164779920572770 Se
   0.1299767145957700    0.6165578099072867    0.8778573940924224 Se
   0.8851505414902385    0.8791132148796327    0.3794205530023489 Se
   0.8659453096495255    0.6341330293136778    0.6340620017647869 Se
   0.6146018297038635    0.3740132172344178    0.1348873516024825 Se
   0.6320831347835412    0.6323768968462126    0.8749016910948326 Se
   0.8680018769325540    0.3605135680705338    0.3712806823200694 Se
