Mg7 Sc16 Se32
1.0
  11.1003847944368736    0.0000000000000000    0.0000000000000000
   0.0000000000000000   11.1003847944368736    0.0000000000000000
  -0.0000000000000000   -0.0000000000000000   11.1003847944368736
Mg Sc Se
7 16 32
direct
   0.5106440236012908    0.0027740459463584    0.5018402235245364 Mg
   0.1836623751648332    0.4330814886261762    0.3876560455916842 Mg
   0.4984779422839427    0.5012642480071774    0.9987964479614893 Mg
   0.7367490578991928    0.2389204263081033    0.7353835286706426 Mg
   0.0019327888777867    0.0190045969214197    0.0132914167319666 Mg
   0.7561050566226097    0.7384305583427011    0.2655164146013904 Mg
   0.0046619255354812    0.4885132446707898    0.4939816731419281 Mg
   0.1248701228037613    0.8748716944690231    0.3750971638684012 Sc
   0.3790751762013472    0.1245597684244259    0.8743922589104681 Sc
   0.3740648614515609    0.3814585006340758    0.6303986210649306 Sc
   0.1253518996528558    0.1235172378090493    0.6232559884319586 Sc
   0.1334188285712296    0.3819669756413191    0.8729115406506039 Sc
   0.3904022814078246    0.6291731568000870    0.3767600604924435 Sc
   0.3736699957942298    0.8691693376059144    0.1275099151128994 Sc
   0.1248064569461906    0.6230801471224030    0.1295334059514678 Sc
   0.6307698775730204    0.8762000698409947    0.8845642871778783 Sc
   0.8757103564531367    0.1209962844607061    0.3759772383123247 Sc
   0.8774413931364663    0.3771038326509574    0.1274614735896438 Sc
   0.6235492623265657    0.1217524949719037    0.1299852356591627 Sc
   0.6228830939055560    0.3786526485870262    0.3720834612373474 Sc
   0.8702750375491236    0.6278046264187241    0.8759937925023288 Sc
   0.8789383435246714    0.8565525375924372    0.6311396483789889 Sc
   0.6147859453378697    0.6282087079287856    0.6143006580588738 Sc
   0.3734066444402166    0.1135426815312202    0.1308367393741674 Se
   0.6277349838003566    0.3818554894003580    0.6196672975971685 Se
   0.6160784667353484    0.1212845531134196    0.8729904862785417 Se
   0.3795173475864961    0.3836386999520127    0.3783870914454099 Se
   0.3651705185638730    0.1358066684910990    0.6339561279503171 Se
   0.1373189699826196    0.8670398888812146    0.1283869338345736 Se
   0.1329179971779196    0.1330381380137655    0.8668092331417862 Se
   0.3627353253028242    0.8706601201564967    0.3725737835290088 Se
   0.3779968428861739    0.6218575773624586    0.6027074198251493 Se
   0.6216935010128262    0.8856560048267610    0.1287830618932403 Se
   0.6205660030237026    0.6109586240856063    0.3775325434794234 Se
   0.3796606703802414    0.8874016510221060    0.8736749925614530 Se
   0.3705636553106252    0.6364715586217440    0.1460584380589994 Se
   0.1331034437087001    0.3672302370066614    0.6327574938048377 Se
   0.1361483230542290    0.6353557013453982    0.3631487677746752 Se
   0.3663789304405252    0.3758710913539029    0.8590355336277452 Se
   0.8797588537051387    0.1137037336464678    0.6130711496608909 Se
   0.1109158173549545    0.3817741300998455    0.1142697337587450 Se
   0.1189659502808376    0.1198131716513122    0.3812660491716420 Se
   0.8681881205612855    0.3689033659204596    0.8917953547393334 Se
   0.8678633389420435    0.1313966492391462    0.1385645364619227 Se
   0.6305794542618846    0.8761619288371917    0.6434603724993533 Se
   0.6348894725474183    0.1256847239656648    0.3592873593478807 Se
   0.8613396519676529    0.8712327978292163    0.8692869803854394 Se
   0.8842002532874176    0.6171909806269849    0.1216336453582289 Se
   0.1104688092018373    0.8763074486462037    0.6155527921451850 Se
   0.1133453251216505    0.6215238848930005    0.8680817980897356 Se
   0.8829636535198681    0.8694832737429149    0.4013288519053046 Se
   0.8881129500574345    0.6316183887162148    0.6226634625813651 Se
   0.6370783564270459    0.3656803853824580    0.1317772612519878 Se
   0.6238419708959524    0.6479902560529793    0.8644224205841771 Se
   0.8615619772277051    0.3702074200097459    0.3601514483219098 Se
