Mg7 Sc16 Se32
1.0
  11.1003847944368736    0.0000000000000000    0.0000000000000000
   0.0000000000000000   11.1003847944368736    0.0000000000000000
  -0.0000000000000000   -0.0000000000000000   11.1003847944368736
Mg Sc Se
7 16 32
direct
   0.4815588384074703    0.9956570126095180    0.5032473135576426 Mg
   0.2485035815907242    0.7650668091153443    0.7479047702722116 Mg
   0.4968648657464459    0.4834697714134154    0.0030698754842606 Mg
   0.7440284017507609    0.2554830882588726    0.7526576024011211 Mg
   0.2071355650353497    0.2174042676141756    0.2231813395832320 Mg
   0.7496577700942401    0.7489547532414109    0.2462750340684894 Mg
   0.0022479237610435    0.5021467750376171    0.5029819143217515 Mg
   0.1210256454087655    0.8910717280357066    0.3681113360550911 Sc
   0.3914390759741981    0.1199882730319941    0.8780420095638835 Sc
   0.3713242660284223    0.3588934054030708    0.6230529260342677 Sc
   0.1258826639965328    0.1305223907968961    0.6194776400245425 Sc
   0.1228728179562948    0.3759315544499817    0.8809384414974784 Sc
   0.3808791232977335    0.6134284625244122    0.3835556895087196 Sc
   0.3776881333501790    0.8843265744815650    0.1096035270143224 Sc
   0.1265505292178896    0.6346491863857596    0.1246676617114166 Sc
   0.6201715127057438    0.8734459548639397    0.8760639008270663 Sc
   0.8820645560697981    0.1394150015934676    0.3822710669322839 Sc
   0.8728247201810583    0.3737180208525656    0.1336340688235773 Sc
   0.6240220597352580    0.1253040383621930    0.1321190133253807 Sc
   0.6343640963480396    0.3727303803809555    0.3643795753320590 Sc
   0.8807787899247490    0.6393535143237360    0.8656768599786673 Sc
   0.8865654296436619    0.8691827060658698    0.6302317257338644 Sc
   0.6317236880643868    0.6303625220357704    0.6199371309965132 Sc
   0.3877856981503298    0.1155493767718092    0.1038583253958153 Se
   0.6161824884122307    0.3937339659783842    0.6045310472484765 Se
   0.6271103838840929    0.1229244224533747    0.8814978161158563 Se
   0.3923970637894795    0.3767441354185366    0.3764281077228975 Se
   0.3623741290264256    0.1168847161738480    0.6318624332028953 Se
   0.1345978372670339    0.8659869984397375    0.1335530831658808 Se
   0.1355263316873436    0.1298338604857049    0.8773096245436708 Se
   0.3700189698416042    0.8659923736671741    0.3594212080099261 Se
   0.3794060895299032    0.6336588457038510    0.6215620097931234 Se
   0.6171712728698006    0.8755645331857370    0.1122249222353739 Se
   0.6067511434814903    0.6199833124200642    0.3962768427886543 Se
   0.3792341308385557    0.8754805949827070    0.8727726987830514 Se
   0.3638998789574117    0.6492984171771440    0.1359050474183740 Se
   0.1322874121603400    0.3729804082672986    0.6314515430030756 Se
   0.1270636630437914    0.6330203949903982    0.3542048990162227 Se
   0.3660710167708591    0.3738603850198596    0.8557404369136982 Se
   0.8867151944942752    0.1203089334299189    0.6206588915360097 Se
   0.1145423360454447    0.3770785268208925    0.1171999999287384 Se
   0.1203288905243410    0.1123541536880407    0.3686593867034712 Se
   0.8823224489200767    0.3828601244185877    0.8831841505719571 Se
   0.8708978211473586    0.1186449696809775    0.1342383965925605 Se
   0.6274969415951180    0.8662660618203767    0.6327330698889265 Se
   0.6293319892831404    0.1270112055253193    0.3836723779992002 Se
   0.8770735589778101    0.8599241861723046    0.8733070091343694 Se
   0.8826213073756167    0.6143300919811608    0.1159261934637724 Se
   0.1167251069148541    0.8828730943991979    0.6171087463928491 Se
   0.1230501613676027    0.6156249187089023    0.8844357987770659 Se
   0.8839304735325164    0.8843829017224930    0.3839008348719746 Se
   0.8643333561848976    0.6337223916597647    0.6284944984175758 Se
   0.6323776147807797    0.3661314372516338    0.1356506906101052 Se
   0.6343869706918133    0.6350826192361324    0.8652885568732396 Se
   0.8698523301845110    0.3636332192040486    0.3640678784037328 Se
