Mg7 Sc16 Se32
1.0
  11.1003847944368736    0.0000000000000000    0.0000000000000000
   0.0000000000000000   11.1003847944368736    0.0000000000000000
  -0.0000000000000000   -0.0000000000000000   11.1003847944368736
Mg Sc Se
7 16 32
direct
   0.4915676966469060    0.9984214737280530    0.4915636186346684 Mg
   0.1728011271480510    0.3127809204811710    0.2385884180741757 Mg
   0.4962199344691006    0.4992111565079697    0.9990737313484759 Mg
   0.7523614880857613    0.2425357712869719    0.7496887406799904 Mg
   0.9896443232817762    0.0075378217569598    0.0035412930179169 Mg
   0.7497858494660240    0.7610286542655437    0.2523166370362598 Mg
   0.9957982500328530    0.4998569874673429    0.5091643434168641 Mg
   0.1352835244942466    0.8825560082611994    0.3699042450343743 Sc
   0.3722523822253816    0.1273766629984211    0.8758328161237762 Sc
   0.3895558104490681    0.3776848670644638    0.6244356641815030 Sc
   0.1258499990974864    0.1296052097921951    0.6274580410803452 Sc
   0.1169164848893863    0.3849173339717227    0.8757787520346735 Sc
   0.3746573015271618    0.6281317556777757    0.3781505293386344 Sc
   0.3728493840657274    0.8763992043487728    0.1266469083691570 Sc
   0.1375686203253907    0.6298237446731905    0.1300307852345883 Sc
   0.6299642069294686    0.8698089827332874    0.8868188111900468 Sc
   0.8748394483352276    0.1248092970030896    0.3750336894127089 Sc
   0.8732971022699306    0.3877102549553459    0.1201634373106431 Sc
   0.6236841640910536    0.1296822838616470    0.1208801672156228 Sc
   0.6385566756027256    0.3785762015560907    0.3662510221823366 Sc
   0.8636669453748339    0.6240294132084150    0.8750266943744461 Sc
   0.8726554506751699    0.8748002845626236    0.6259425195161996 Sc
   0.6223926985407365    0.6237030244584469    0.6260798607855775 Sc
   0.3833106128313186    0.1048238885951609    0.1057688977496972 Se
   0.6255287472955258    0.3873515302447743    0.6205328518350696 Se
   0.6105414091892399    0.1129156630373239    0.8727045181897791 Se
   0.3876245304830257    0.3788785397538444    0.3912659374874520 Se
   0.3783827298945800    0.1375755194022583    0.6357507063653329 Se
   0.1318372326715352    0.8707572724207775    0.1394812685899701 Se
   0.1254681413103788    0.1416533988525684    0.8769742178696206 Se
   0.3745559162157774    0.8637154028040591    0.3628520219123020 Se
   0.3877096809797992    0.6183289531118503    0.6193111322992272 Se
   0.6203052766019921    0.8874488061470343    0.1157243430320646 Se
   0.6136321908975101    0.6193496285498438    0.3780735733657034 Se
   0.3943677156443745    0.8729477280717567    0.8881869371817805 Se
   0.3713727344244901    0.6272819142426035    0.1362781553352491 Se
   0.1289443810599657    0.3646269589942989    0.6292996667358799 Se
   0.1271443527773829    0.6363611079338466    0.3717383175343065 Se
   0.3630260734466190    0.3715509141020591    0.8733050435214542 Se
   0.8790207069729299    0.1156199771628310    0.6167090092501133 Se
   0.1107620565857226    0.3886767834256163    0.1293298770577505 Se
   0.1247413461429597    0.1070392761620095    0.3837973588661092 Se
   0.8855171922108829    0.3751387543471940    0.8806775643285711 Se
   0.8656311026734147    0.1271301648883020    0.1331759912697739 Se
   0.6291415405446396    0.8670055320728602    0.6180279796039259 Se
   0.6320564778836211    0.1327517409008168    0.3665031036515105 Se
   0.8660392586285043    0.8688947193438509    0.8671563242325384 Se
   0.8873846232579324    0.6153575741161237    0.1096747299584248 Se
   0.1171216631964268    0.8828580991610823    0.6171188999606172 Se
   0.1236558860405035    0.6194599846042599    0.8793744640873051 Se
   0.8801249363139567    0.8776565363939086    0.3822050063053802 Se
   0.8673463515179971    0.6315998093287587    0.6312366613385731 Se
   0.6327099463161682    0.3670883786958212    0.1325213809332907 Se
   0.6339015872104788    0.6310635448911290    0.8675046203812170 Se
   0.8662274462936417    0.3675323812352587    0.3675090966899396 Se
