Mg7 Sc16 Se32
1.0
  11.1003847944368736    0.0000000000000000    0.0000000000000000
   0.0000000000000000   11.1003847944368736    0.0000000000000000
  -0.0000000000000000   -0.0000000000000000   11.1003847944368736
Mg Sc Se
7 16 32
direct
   0.4847755854292784    0.9954662768322819    0.4978073709791544 Mg
   0.2470448916294741    0.7514157068903367    0.7508699647147936 Mg
   0.2482806961110989    0.2542267672499652    0.2512278287989870 Mg
   0.7551622656723754    0.2569672796983992    0.7538683664816750 Mg
   0.0028609777980098    0.0035092656332025    0.0035157626916436 Mg
   0.7500758494998397    0.7497656686481828    0.2499995701766920 Mg
   0.9923660207548586    0.5041734232171329    0.4956687897937707 Mg
   0.1195971892431076    0.8663016139062554    0.3738665682074666 Sc
   0.3624300408478607    0.1196917568992245    0.8791174794568133 Sc
   0.3634667568955624    0.3681799213938168    0.6025107846789657 Sc
   0.1250436228995170    0.1282949481177248    0.6255837251760015 Sc
   0.1303970065916148    0.3808151214651135    0.8565540172116382 Sc
   0.3735961878308719    0.6209864097706111    0.3764675643442711 Sc
   0.3651042785475899    0.8768549567706539    0.1361079087347599 Sc
   0.1310663713754452    0.6158500305735390    0.1433047225932822 Sc
   0.6164200291495276    0.8719799998036759    0.8706428083419219 Sc
   0.8772716898891951    0.1285648072917979    0.3705962151409292 Sc
   0.8647810548903969    0.3724181756025554    0.1204216662638429 Sc
   0.6266498673029764    0.1249369794848678    0.1215204577040753 Sc
   0.6363810880721299    0.3701638228269107    0.3741874200224274 Sc
   0.8731417948020467    0.6273049459429508    0.8768187513407132 Sc
   0.8791401677968627    0.8748717044733197    0.6312671407537400 Sc
   0.6362427442214567    0.6287430494134250    0.6310643381541070 Sc
   0.3881093990324793    0.1162922265810489    0.1344792549246554 Se
   0.6244645876188374    0.3856421117494199    0.6085421306664248 Se
   0.6089783777272257    0.1057291642861733    0.8925646112752557 Se
   0.3820801682620292    0.3871667408312403    0.3828259288939352 Se
   0.3630928693702093    0.1330712392365890    0.6591229595740078 Se
   0.1323594419976075    0.8692301543636176    0.1334927360774847 Se
   0.1289912865992042    0.1447461184623374    0.8887517513227983 Se
   0.3693126985807362    0.8729110767970011    0.3733794933506633 Se
   0.3770660281112779    0.6244722346215416    0.5950400076056214 Se
   0.6148307237413835    0.8826056462657437    0.1223950956721050 Se
   0.6238664689048437    0.6196784995110912    0.3777105385340987 Se
   0.3868090524796199    0.8867133236667986    0.8802360039642037 Se
   0.3768683878902496    0.6449213129059007    0.1111433962601905 Se
   0.1391131918209192    0.3758114820064398    0.6294728547396876 Se
   0.1323899931876819    0.6325419150236496    0.3674998691307244 Se
   0.3844267342013989    0.3643451502018579    0.8745211100018130 Se
   0.8776200332999231    0.1243790288466770    0.6340231673867089 Se
   0.1147446775839624    0.3822300634356777    0.1267020545322668 Se
   0.1021729392628281    0.1230943857194738    0.4020822171304537 Se
   0.8759537025114654    0.3653605352149433    0.8702851320961397 Se
   0.8656265833494093    0.1328144197645439    0.1331607772993699 Se
   0.6467916904411031    0.8543428374630213    0.6137358790193602 Se
   0.6126368637106221    0.1300889939584861    0.3570608193790992 Se
   0.8680919569775792    0.8693477217986199    0.8672335490437537 Se
   0.8828466256991807    0.6173136849813388    0.1175171986800376 Se
   0.1163234939827266    0.8701461693484374    0.6167328281139353 Se
   0.1176370191396993    0.6043242667842108    0.8776169105265154 Se
   0.8682762791772419    0.8822029299845421    0.3827144576434797 Se
   0.8734657070274453    0.6410248313064737    0.6378135039482857 Se
   0.6249418590684037    0.3691496545197704    0.1262987249629313 Se
   0.6359705656107891    0.6347690595189198    0.8660164301077297 Se
   0.8681195155730013    0.3576797775669759    0.3644982632796519 Se
