Mg7 Sc16 Se32
1.0
  11.1003847944368736    0.0000000000000000    0.0000000000000000
   0.0000000000000000   11.1003847944368736    0.0000000000000000
  -0.0000000000000000   -0.0000000000000000   11.1003847944368736
Mg Sc Se
7 16 32
direct
   0.4902869659100851    0.9990425027339257    0.4908414077467160 Mg
   0.2516311223570960    0.7539647559066924    0.7490792788835893 Mg
   0.4994406991377745    0.4957952723406799    0.0047086834294379 Mg
   0.7332862849271425    0.2492046881910885    0.7524585580404709 Mg
   0.0087971263679748    0.0124212550880544    0.0060887791265140 Mg
   0.7561317763863880    0.7419111404176418    0.2608991589770352 Mg
   0.2500512421975048    0.2501284854537567    0.2499500445680013 Mg
   0.1228367956949621    0.8767793128775022    0.3703506410158030 Sc
   0.3821681215975378    0.1215661943557785    0.8767899407619560 Sc
   0.3830777538065221    0.3711672677101611    0.6316005481974885 Sc
   0.1254827263459870    0.1256703322365125    0.6275499225083433 Sc
   0.1214496725217300    0.3685256782671600    0.8768556254635411 Sc
   0.3652221900166361    0.6255184775719994    0.3664386509834239 Sc
   0.3704294574950197    0.8640467618347873    0.1215499994609848 Sc
   0.1315006126051674    0.6323134377032918    0.1144593377615147 Sc
   0.6204271619398841    0.8829025029937798    0.8793028473489368 Sc
   0.8787392326243180    0.1146123097328823    0.3853386304288168 Sc
   0.8723124505668379    0.3710071267853221    0.1333975692819309 Sc
   0.6141625897404851    0.1372544313024723    0.1209426706165211 Sc
   0.6379945154340780    0.3687511078308368    0.3672015268474907 Sc
   0.8764444450154341    0.6253329410203827    0.8752251534760388 Sc
   0.8822704209781896    0.8646754278644887    0.6255357165062649 Sc
   0.6226946511736619    0.6288862828200771    0.6181387936993734 Sc
   0.3841710254078606    0.1202318946045943    0.1178522748573637 Se
   0.6180564322705195    0.3954264872043733    0.6143880155298661 Se
   0.6273551125923080    0.1266674151543120    0.8814393589930029 Se
   0.3862931546686603    0.3860507180833017    0.3923900092834701 Se
   0.3668549115279086    0.1349919814562745    0.6325663421303396 Se
   0.1364774692641714    0.8641235074257385    0.1304604106780446 Se
   0.1269922287293365    0.1340377541522343    0.8754468369241520 Se
   0.3710356314859566    0.8585887100913453    0.3634381426253522 Se
   0.3795928266471456    0.6110820664261252    0.6191772178912165 Se
   0.6172949665142539    0.8830350659078227    0.1171037283489802 Se
   0.6159873068683996    0.6205537704942142    0.3839602620122641 Se
   0.3913882453598447    0.8764286051081842    0.8876014322285312 Se
   0.3651231584971256    0.6337409678182586    0.1340451138355438 Se
   0.1339253999913421    0.3689111811348782    0.6329011640174155 Se
   0.1432073797820091    0.6302096059561377    0.3679917340665523 Se
   0.3527840516213710    0.3695928520968802    0.8583571007184362 Se
   0.8801707210865440    0.1177454942801634    0.6188930682248178 Se
   0.1246239561042522    0.3740824158856279    0.1151114103972582 Se
   0.1211365584859450    0.1212976173338590    0.3816059597617782 Se
   0.8851300234023138    0.3749112423573930    0.8868137434843030 Se
   0.8700907353109609    0.1265595180176908    0.1485883038843217 Se
   0.6392422534242892    0.8729535541716285    0.6334111088379121 Se
   0.6294462221299704    0.1251745198857292    0.3646958580055754 Se
   0.8691504971887173    0.8665724523521466    0.8682750555995118 Se
   0.8794712878214378    0.6093007677379935    0.1141046089024537 Se
   0.1145915795538453    0.8784179864321444    0.6126525142352096 Se
   0.1256341544027740    0.6153567208695172    0.8868151785557489 Se
   0.8906975448693525    0.8937573185051748    0.3918656608935377 Se
   0.8679051127330051    0.6343326909493174    0.6319551806846079 Se
   0.6342401706721549    0.3805155786404331    0.1262994769730019 Se
   0.6420802932244608    0.6375271520194219    0.8656186479757957 Se
   0.8653620523629929    0.3622602374971103    0.3736238158441748 Se
