Mg7 Sc16 Se32
1.0
  11.1003847944368736    0.0000000000000000    0.0000000000000000
   0.0000000000000000   11.1003847944368736    0.0000000000000000
  -0.0000000000000000   -0.0000000000000000   11.1003847944368736
Mg Sc Se
7 16 32
direct
   0.4875143177436878    0.0112923720779063    0.5007067347802656 Mg
   0.2537996750858303    0.7543357953240232    0.7673935891019973 Mg
   0.5003344491194573    0.4996859033480421    0.0000575062718099 Mg
   0.7421555151786012    0.2577182790854947    0.7602388343611264 Mg
   0.2501703621523558    0.2711313580084037    0.2622394048703026 Mg
   0.7593875790613572    0.7482472764791774    0.2534343949339117 Mg
   0.9793333345707712    0.5018032905641887    0.5013758469544721 Mg
   0.1261450848697713    0.8729602637363990    0.3687977195023985 Sc
   0.3765316510913397    0.1257980469498860    0.8779534003623594 Sc
   0.3674798415077411    0.3724606633118389    0.6272599695484183 Sc
   0.1276845401279343    0.1139891020866272    0.6123257267730844 Sc
   0.1182124376974035    0.3592883511207977    0.8841177436164432 Sc
   0.3832786793392587    0.6365963833808330    0.3806465661951266 Sc
   0.3742569821066329    0.8768271088750086    0.1273981774823974 Sc
   0.1253840730530951    0.6199578996069163    0.1188558812065815 Sc
   0.6218225464970061    0.8734043732718926    0.8746342346990280 Sc
   0.8848277237460186    0.1287794859717398    0.3715665493344376 Sc
   0.8784603693147578    0.3913023248999938    0.1161712981343387 Sc
   0.6246678529379159    0.1245788148025288    0.1277172426146715 Sc
   0.6132648241918944    0.3640764811651839    0.3704589148213962 Sc
   0.8731697477896011    0.6277225988442070    0.8673098249787764 Sc
   0.8666269360868319    0.8694056821673170    0.6358256496875926 Sc
   0.6246587839084824    0.6249893086665764    0.6235792175094553 Sc
   0.3786495249106594    0.1171561106333956    0.1178426057560904 Se
   0.6195596491561635    0.3832323499959076    0.6156920239264765 Se
   0.6196064274782827    0.1018295351911070    0.8838789385818638 Se
   0.3766121179115342    0.3914838714686978    0.3739680818415183 Se
   0.3697135361487663    0.1364411130353946    0.6313348950135913 Se
   0.1301435183447981    0.8619410212338769    0.1260706877207648 Se
   0.1358855623670979    0.1220747552693923    0.8805005463879609 Se
   0.3727651616752147    0.8573086317947084    0.3837439964643006 Se
   0.3890955866578020    0.6297504626619228    0.6128108572450599 Se
   0.6173244923508410    0.8824151970537968    0.1169502231094456 Se
   0.6067352955575575    0.6014596284987556    0.3757544131184862 Se
   0.3835949021440563    0.8873235190429863    0.8599902974319266 Se
   0.3642009555794060    0.6442332635296816    0.1245861883389010 Se
   0.1305487782129962    0.3694264715424772    0.6312873831437923 Se
   0.1252557881180623    0.6236054972002204    0.3703113030180484 Se
   0.3576877847571757    0.3671825553896763    0.8654004503610085 Se
   0.8889465675439114    0.1198540012251665    0.6174241084618036 Se
   0.1194812833785137    0.3882707362581048    0.1170524393697018 Se
   0.1166493066668451    0.1176733466003458    0.3795627595442803 Se
   0.8713080194690387    0.3827817408653263    0.8846453149776518 Se
   0.8673227623194423    0.1408328235170492    0.1473244745831761 Se
   0.6429329695955799    0.8828652433789693    0.6310427487262439 Se
   0.6318387066853072    0.1251068086777875    0.3766287042109262 Se
   0.8652538987285263    0.8692172898643415    0.8687884628276166 Se
   0.8927110647650225    0.6145717982306094    0.1180242291905353 Se
   0.1232650047665905    0.8892561821788336    0.6163728483257455 Se
   0.1075644433960317    0.6081008808752814    0.8892564252026518 Se
   0.8782406086953388    0.8762805575341546    0.3685476104572246 Se
   0.8703242085337950    0.6214020743839350    0.6418261203403302 Se
   0.6361457585368695    0.3692659735011654    0.1305585145486682 Se
   0.6307830462603028    0.6326102340640489    0.8656725125452839 Se
   0.8628455685566309    0.3623314973484326    0.3720217593094223 Se
