Mg7 Sc16 Se32
1.0
  11.1003847944368736    0.0000000000000000    0.0000000000000000
   0.0000000000000000   11.1003847944368736    0.0000000000000000
  -0.0000000000000000   -0.0000000000000000   11.1003847944368736
Mg Sc Se
7 16 32
direct
   0.4992817535477375    0.0000419633827954    0.4997808449612142 Mg
   0.2508416058323580    0.7515233046307700    0.7505779738281567 Mg
   0.2556405323038822    0.3322520293621291    0.1403847951923621 Mg
   0.7501319979367441    0.2493469413453563    0.7502284327195393 Mg
   0.9987541230601024    0.0015804767030648    0.9985645089393669 Mg
   0.7501808258151121    0.7494878894507883    0.2488141710582075 Mg
   0.0002503776401047    0.4987239020128800    0.5024841164198867 Mg
   0.1249454478294534    0.8751244113154921    0.3748401892215566 Sc
   0.3744064275105896    0.1285166037559707    0.8764936820039252 Sc
   0.3744171225670727    0.3755262843107111    0.6243508777842545 Sc
   0.1270770478751113    0.1244948338562126    0.6249394038925743 Sc
   0.1249797144481169    0.3728648732830392    0.8751778692200832 Sc
   0.3750004206334260    0.6246372041952909    0.3754037734483596 Sc
   0.3751211029429249    0.8750980220297606    0.1238209909332556 Sc
   0.1250393973361030    0.6250068620424314    0.1248562220869905 Sc
   0.6253518796294206    0.8749738433952265    0.8749401875827851 Sc
   0.8749992568077454    0.1249966813187413    0.3749935515440362 Sc
   0.8762449799183697    0.3761519719048370    0.1242524451412802 Sc
   0.6228100219146431    0.1226954682940132    0.1235120083016647 Sc
   0.6211537448567626    0.3747064589620322    0.3736929305517257 Sc
   0.8744364993670229    0.6250633666444645    0.8748621241452915 Sc
   0.8758821803162372    0.8773146406386017    0.6272271387633492 Sc
   0.6284373360224808    0.6251274163071370    0.6229063142306523 Sc
   0.3828785268080126    0.1170465042163682    0.1171496263278200 Se
   0.6171280074847338    0.3816327531124362    0.6167260754750736 Se
   0.6162323502259344    0.1182125835418380    0.8839292475891108 Se
   0.3830376499997986    0.3828571751818641    0.3834309681642092 Se
   0.3662608696665082    0.1327318415661347    0.6327575162773393 Se
   0.1344583258631640    0.8660574172938673    0.1362597475398146 Se
   0.1314031545696689    0.1336464110542795    0.8689799056065268 Se
   0.3653039760927757    0.8670211609699739    0.3666970173508642 Se
   0.3830162381066064    0.6171138328631001    0.6171780853181719 Se
   0.6193981176742898    0.8832417235268700    0.1144467460538626 Se
   0.6169326331853768    0.6153334247133926    0.3811234311048678 Se
   0.3843886338720182    0.8831053081708490    0.8822700845379822 Se
   0.3684880530003921    0.6313866746183445    0.1343006206307288 Se
   0.1349683622508878    0.3702457374327296    0.6329190061530161 Se
   0.1323521865472237    0.6333114586886238    0.3688001995836622 Se
   0.3662754899292280    0.3696155964274213    0.8663781420632081 Se
   0.8829315689788136    0.1177466850461217    0.6157111421847365 Se
   0.1170110770074289    0.3827440694079898    0.1172136538577142 Se
   0.1174893675604296    0.1194439348382151    0.3816229617614216 Se
   0.8831052855809389    0.3820311382788329    0.8801567609551746 Se
   0.8674470158026341    0.1343452351378495    0.1335821483315059 Se
   0.6334665681560204    0.8669794946652097    0.6336211887349433 Se
   0.6327374008747688    0.1328041569033955    0.3672717057455384 Se
   0.8670685761455814    0.8651774702493765    0.8665937389921333 Se
   0.8838431175460399    0.6173158241024207    0.1172426276718449 Se
   0.1167189676115784    0.8827426998597963    0.6169706980215649 Se
   0.1171274530055851    0.6162185113024404    0.8826042367563329 Se
   0.8789756406149264    0.8819775427604323    0.3811603110124347 Se
   0.8699414690241198    0.6320684783639596    0.6353924338382713 Se
   0.6314855921243243    0.3673245610192581    0.1312981626611498 Se
   0.6338405969994487    0.6327861646146464    0.8668818303967243 Se
   0.8685763372936296    0.3661368014555197    0.3681316160157506 Se
