Mg7 Sc16 Se32
1.0
  11.1003847944368736    0.0000000000000000    0.0000000000000000
   0.0000000000000000   11.1003847944368736    0.0000000000000000
  -0.0000000000000000   -0.0000000000000000   11.1003847944368736
Mg Sc Se
7 16 32
direct
   0.5072115940152728    0.9777525001697035    0.4897578676228062 Mg
   0.2626798421654859    0.7633647895267399    0.7517008776152646 Mg
   0.2089657487310821    0.2710174254643555    0.1848269232220650 Mg
   0.7383844736372939    0.2299097364736999    0.7553685711978300 Mg
   0.9926160912528657    0.0066142075724423    0.9848508704111815 Mg
   0.7564090525353100    0.7726480403196299    0.2397354685250701 Mg
   0.9919642801389301    0.5015550938689551    0.4892826214421961 Mg
   0.1179962079636417    0.8597326875212391    0.3714812853004783 Sc
   0.3741426525879951    0.1254581720927441    0.8712781790211961 Sc
   0.3753811643848650    0.3669406341752142    0.6300881173243555 Sc
   0.1211932151680497    0.1244049706414532    0.6255543380326186 Sc
   0.1286187461126471    0.3829903642952429    0.8681932501841944 Sc
   0.3772748356718034    0.6249901146478564    0.3895561874670672 Sc
   0.3744892122990561    0.8726411106990555    0.1240415940737766 Sc
   0.1265055447755070    0.6270656324484553    0.1251322000079158 Sc
   0.6116934949376400    0.8597183622057857    0.8575454224640532 Sc
   0.8772220724649261    0.1234188324012581    0.3794865350664707 Sc
   0.8640824946836210    0.3625577762593206    0.1254627008054311 Sc
   0.6257070114022550    0.1243088498732273    0.1240074574502139 Sc
   0.6256056184157859    0.3716391937665259    0.3832036276620694 Sc
   0.8778044435905961    0.6173124174233489    0.8700089457039393 Sc
   0.8623283580444280    0.8698527100998270    0.6416372430793976 Sc
   0.6187339544234254    0.6143374850511375    0.6166039125662278 Sc
   0.3787950805657315    0.1167751147152387    0.1117692098678624 Se
   0.6160969714054096    0.3854814923339326    0.6127240974347354 Se
   0.6136880682269981    0.1344982223287003    0.8924689526238885 Se
   0.3956991121944402    0.3747045409387537    0.3804784533024727 Se
   0.3539270405464466    0.1417238366465508    0.6294781994483912 Se
   0.1162914588133298    0.8634716865345254    0.1268905442508650 Se
   0.1267894590407455    0.1391993201800952    0.8697315046314419 Se
   0.3458130377429185    0.8772062899312353    0.3754543466940787 Se
   0.3858826833410539    0.6089182970433482    0.6097117222904770 Se
   0.6258967965629444    0.8844509886661629    0.1144045621826120 Se
   0.6149688745729790    0.6299476652520903    0.3656787218147785 Se
   0.3604511330956530    0.8729287405320373    0.8933667276860097 Se
   0.3682190337715763    0.6333967666438497    0.1328709536435596 Se
   0.1313906840206944    0.3751238441544583    0.6181390756850236 Se
   0.1425011640062584    0.6330372853800594    0.3699133711304626 Se
   0.3841470613351163    0.3689053016953491    0.8704651896066621 Se
   0.9056890255383481    0.1138182783790844    0.6161345783409309 Se
   0.1099955177483576    0.3754629775292957    0.1246772506349021 Se
   0.1194619229915980    0.1225976404688200    0.3820560814581106 Se
   0.8843102611372368    0.3812188982897661    0.8819612276566448 Se
   0.8606248561505535    0.1425880812998674    0.1108004020853921 Se
   0.6400603294242956    0.8544080573351368    0.6104427544520689 Se
   0.6514067153236346    0.1346904696625324    0.3688684630752122 Se
   0.8714420986691876    0.8796970514069635    0.8516247386378308 Se
   0.8803599912935747    0.6186763447010963    0.1173799872909734 Se
   0.1022893678238754    0.8684509106262134    0.6078584069162013 Se
   0.1259434544257146    0.6292360048389801    0.8749148825717612 Se
   0.8904933137131937    0.8963376028236391    0.3840102329692345 Se
   0.8792648832345482    0.6429450116047357    0.6472448011145979 Se
   0.6399847523558704    0.3705447267315639    0.1183523988364071 Se
   0.6285405373480321    0.6157380405313877    0.8770032213105473 Se
   0.8628536948047696    0.3632173362916172    0.3698554272808698 Se
