Mg7 Sc16 Se32
1.0
  11.1003847944368736    0.0000000000000000    0.0000000000000000
   0.0000000000000000   11.1003847944368736    0.0000000000000000
  -0.0000000000000000   -0.0000000000000000   11.1003847944368736
Mg Sc Se
7 16 32
direct
   0.5021301806350749    0.9979257675342994    0.5102847531528386 Mg
   0.2490563842739398    0.7464049748132574    0.7571372493496913 Mg
   0.4995608012074336    0.5003010217823607    0.0007466375786057 Mg
   0.7504165467733918    0.2489806282029576    0.7491908735182649 Mg
   0.2356635326746507    0.2794095923978427    0.2755733738448262 Mg
   0.7524012147396918    0.7497481396928001    0.2443847745858698 Mg
   0.0009415101039372    0.5003531273526182    0.4990568000739620 Mg
   0.1224938089887912    0.8704476291790002    0.3772934556572113 Sc
   0.3744207186121500    0.1250770196486490    0.8742200729036830 Sc
   0.3782392514139657    0.3751199643911142    0.6162203280770865 Sc
   0.1251319766142323    0.1253632941590024    0.6244116669247021 Sc
   0.1255846527923628    0.3750445638659121    0.8749530102984812 Sc
   0.3750392783985673    0.6249831261199351    0.3750611338798051 Sc
   0.3761272372332948    0.8774060867493574    0.1252630599360441 Sc
   0.1235780472913404    0.6270913722230037    0.1226501980988968 Sc
   0.6228200311552137    0.8729114212172849    0.8845179337735419 Sc
   0.8689763681943549    0.1253912329680166    0.3669483308984542 Sc
   0.8750423491979155    0.3661107928752962    0.1205297355723678 Sc
   0.6287304839039405    0.1260905392116490    0.1256563013075852 Sc
   0.6162450014302336    0.3772448514832815    0.3741897567259209 Sc
   0.8669319153351118    0.6188761044868866    0.8751081390108872 Sc
   0.8768633550159614    0.8784952142369592    0.6230394047120316 Sc
   0.6173062406096529    0.6226837809500465    0.6292663622426975 Sc
   0.3799553066893109    0.1187351104654395    0.1123196423551646 Se
   0.6164768067739719    0.3833513285953249    0.6172186652125204 Se
   0.6107680171586031    0.1166420808455877    0.8884623254429619 Se
   0.3767287902449016    0.3838603635132080    0.3779826565318781 Se
   0.3704517785029172    0.1331648419984669    0.6417487891508568 Se
   0.1244515350248011    0.8692861055250473    0.1334151400091805 Se
   0.1253119169676027    0.1298539842413100    0.8699658309213136 Se
   0.3686772067545147    0.8768409308610662    0.3626094894406847 Se
   0.3845871030280354    0.6196652418578625    0.6155228721786737 Se
   0.6166000380873115    0.8830549873330659    0.1161221271632879 Se
   0.6131229583742264    0.6173368307260005    0.3837573236794513 Se
   0.3862293232875192    0.8808012858683508    0.8822889250321383 Se
   0.3659415236445906    0.6309724043794720    0.1317685612595253 Se
   0.1333381145974282    0.3683150946163282    0.6323320686020166 Se
   0.1415595692578939    0.6343287402725363    0.3650524756516658 Se
   0.3684004105945592    0.3691322253683116    0.8656947376040399 Se
   0.8870179418284309    0.1174519391717397    0.6135184681303665 Se
   0.1175970820877209    0.3857867031133695    0.1151719648980316 Se
   0.1178500203199532    0.1262516658138207    0.3872953430221043 Se
   0.8747387490259781    0.3876641605024304    0.8780282000142546 Se
   0.8664669804196480    0.1287979878096787    0.1353989645916703 Se
   0.6339572793819718    0.8669642326321209    0.6328587022151971 Se
   0.6292472690953390    0.1348004024831512    0.3701157144426243 Se
   0.8697935084199347    0.8764477231532100    0.8652615621716244 Se
   0.8912648517379675    0.6159120340581865    0.1142954938038319 Se
   0.1241134156034985    0.8892385552493465    0.6190347092247144 Se
   0.1209944405385296    0.6125423957773255    0.8773461398997341 Se
   0.8747952673363669    0.8863959901235402    0.3862915965738494 Se
   0.8675893628885522    0.6325034167904536    0.6331688162556789 Se
   0.6337496175089861    0.3688790563956630    0.1255663059699884 Se
   0.6298383174537694    0.6407314786541908    0.8712595495456820 Se
   0.8723787995372529    0.3718605536118673    0.3651851887411846 Se
