Mg7 Sc16 Se32
1.0
  11.1003847944368736    0.0000000000000000    0.0000000000000000
   0.0000000000000000   11.1003847944368736    0.0000000000000000
  -0.0000000000000000   -0.0000000000000000   11.1003847944368736
Mg Sc Se
7 16 32
direct
   0.5018086236058180    0.9985768413688138    0.5029354363459934 Mg
   0.2413886255809896    0.7502388765179799    0.7488557000733220 Mg
   0.5000464124526846    0.4995058183343163    0.0022587666278941 Mg
   0.7527160618811698    0.2494835356500357    0.7530255881727711 Mg
   0.1981830029866236    0.2050436538370920    0.2172191984785430 Mg
   0.7517605413518605    0.7473210964985730    0.2467431360919698 Mg
   0.0020687019798269    0.4857790585113177    0.5033911026038959 Mg
   0.1085941516407000    0.8879986196355105    0.3790623672255160 Sc
   0.3778775487900525    0.1194408190745613    0.8679065826965441 Sc
   0.3750131745213731    0.3749854135025349    0.6250000409869497 Sc
   0.1370971188648571    0.1196733348655769    0.6056103618002209 Sc
   0.1245404217450536    0.3746667937802605    0.8783904188037386 Sc
   0.3724475935114985    0.6175638283764600    0.3817265875195897 Sc
   0.3766514142916190    0.8781470935415406    0.1264935236524039 Sc
   0.1252117995792711    0.6008264732241201    0.1316182664968145 Sc
   0.6256555786497616    0.8556551289117575    0.8733959249513283 Sc
   0.8784946143789211    0.1261357964732615    0.3522577221098880 Sc
   0.8626177906449847    0.3740385798643820    0.1394671506154976 Sc
   0.6278969019309282    0.1154138039056372    0.1299575842138247 Sc
   0.6172023636159824    0.3856394255597478    0.3640828850664712 Sc
   0.8664841128202252    0.6140630435697528    0.8799369000049139 Sc
   0.8847982215269955    0.8973011179783398    0.6252065549573921 Sc
   0.6251936146828846    0.6257918170413134    0.6245011558041599 Sc
   0.3642258350007984    0.1100867665434026    0.1283870712242486 Se
   0.6165157489561438    0.3846306910272644    0.6152081154144141 Se
   0.6043893608768788    0.1075438424249471    0.8664197503771012 Se
   0.3739418024235950    0.3842159915663503    0.3938891939110426 Se
   0.3588860258964685    0.1277721463374578    0.6326776566102944 Se
   0.1451976359954805    0.8542096396875577    0.1183803874901617 Se
   0.1346124544572530    0.1341224380910251    0.8672038815323350 Se
   0.3888817674753315    0.8605713579062455    0.3678579614085808 Se
   0.3826461375207201    0.6215127428053188    0.6106210633585673 Se
   0.6125194729680754    0.8805342925908046    0.1290107843985328 Se
   0.6150010653717763    0.6061928504235384    0.3871969638966813 Se
   0.3822869794063862    0.8830331867130128    0.8821532085408559 Se
   0.3484051104689097    0.6300750998752201    0.1240122276114980 Se
   0.1181036474081260    0.3600848608362777    0.6178057275073122 Se
   0.1352817530380232    0.6378455141569535    0.3550603429204965 Se
   0.3618810853235693    0.3705525991069233    0.8613525636522845 Se
   0.8860931889626928    0.1297885952904119    0.6165900948281002 Se
   0.1359025599284305    0.3903200455265126    0.1207072369473929 Se
   0.1164944608626277    0.1185658016710448    0.3822080477335261 Se
   0.8837485456654273    0.3868159212585440    0.8700316076536395 Se
   0.8642711350044568    0.1129794775741507    0.1270564814032595 Se
   0.6257990854011732    0.8781639648944575    0.6338222334314488 Se
   0.6322544423197552    0.1436897551439748    0.3736194822731615 Se
   0.8646553785588826    0.8817663512507579    0.8550269841074786 Se
   0.8839150105911069    0.6171517673618793    0.1088328873905633 Se
   0.1086895705694939    0.8900048641692047    0.6168772739121873 Se
   0.1105316319994530    0.6064334524622614    0.8945480994499441 Se
   0.8788334270984662    0.9073816024798883    0.3751527765075607 Se
   0.8661828280879196    0.6341058545869427    0.6338249731746971 Se
   0.6309866187887724    0.3703995952788679    0.1371296192546764 Se
   0.6193799793704895    0.6254477254903450    0.8553448604044569 Se
   0.8645700993115583    0.3596844211707756    0.3761851656207350 Se
