Mg7 Sc16 Se32
1.0
  11.1003847944368736    0.0000000000000000    0.0000000000000000
   0.0000000000000000   11.1003847944368736    0.0000000000000000
  -0.0000000000000000   -0.0000000000000000   11.1003847944368736
Mg Sc Se
7 16 32
direct
   0.5004411672174772    0.0093652631388353    0.4966708482604797 Mg
   0.2486865017134688    0.7451392524110886    0.7593534288350817 Mg
   0.5018372677691888    0.5038104919317389    0.0070856097014015 Mg
   0.7466850308415988    0.2524430878943685    0.7417568824087957 Mg
   0.0070850649600933    0.0057574045446610    0.0025253430473784 Mg
   0.7564584485471901    0.7445958303323192    0.2525572465911646 Mg
   0.0022870035460071    0.5021070765152674    0.5009407574255330 Mg
   0.1219286633564131    0.8726089179216141    0.3685312562304893 Sc
   0.3779962267581631    0.1261752954161914    0.8704184720357925 Sc
   0.3738862219655756    0.3809220813852967    0.6269885117403956 Sc
   0.1174719589933405    0.1231998668155231    0.6229504655779236 Sc
   0.1245234538651319    0.3752099142477453    0.8730525892332359 Sc
   0.3718549626773074    0.6205242370265870    0.3814869842540475 Sc
   0.3709958135294747    0.8732304092123061    0.1209831871312892 Sc
   0.1252269864898967    0.6310317514372246    0.1200223272081947 Sc
   0.6292410021832864    0.8741731568123249    0.8718342771168597 Sc
   0.8720760100848790    0.1277615339644392    0.3663765732231261 Sc
   0.8856433947155763    0.3735039790877642    0.1267483360159557 Sc
   0.6243800205097972    0.1266842229422067    0.1244486426571921 Sc
   0.6257929146176833    0.3763708964590886    0.3754956310685192 Sc
   0.8801172771930501    0.6189793903196272    0.8742082037997304 Sc
   0.8797732322058472    0.8763387146784071    0.6276763342832575 Sc
   0.6249322575564208    0.6248855462881375    0.6245832352920355 Sc
   0.3839001013987133    0.1151065367083526    0.1192916632275874 Se
   0.6171915441138699    0.3831241234040934    0.6166588087387673 Se
   0.6178019169861596    0.1168526220217414    0.8822354729169011 Se
   0.3803530152682944    0.3865388391101272    0.3792936184141849 Se
   0.3677643892858103    0.1303688826744761    0.6256121780856975 Se
   0.1377753310353212    0.8668082568745999    0.1340304626390143 Se
   0.1435195943408292    0.1320356992052039    0.8679150155333349 Se
   0.3671398981405853    0.8667280881210754    0.3701383827721025 Se
   0.3824164515106442    0.6121164367518663    0.6156008496380070 Se
   0.6155322758424003    0.8832836523118375    0.1169103357283948 Se
   0.6103555305183609    0.6205180707616605    0.3771977576942332 Se
   0.3870560657420894    0.8836994174066332    0.8825803286515396 Se
   0.3615685515387138    0.6315845996040216    0.1334490974675780 Se
   0.1334857786467961    0.3692455487946716    0.6359197015222774 Se
   0.1427467847315667    0.6327496403773876    0.3627761753724769 Se
   0.3643052314092028    0.3677803918189786    0.8667420540662958 Se
   0.8839141506225480    0.1219233919595138    0.6131561289984613 Se
   0.1214164567961202    0.3797908988088486    0.1197355277739637 Se
   0.1183133366154755    0.1163137569950052    0.3830333632433480 Se
   0.8763082199853627    0.3841614710943350    0.8805013511833517 Se
   0.8736036216447118    0.1340821794006588    0.1326347689179910 Se
   0.6331778578170408    0.8662830397875930    0.6328239204136102 Se
   0.6325976169938864    0.1330385232178325    0.3673605281740703 Se
   0.8725166755363911    0.8687545596810889    0.8627010747591348 Se
   0.8814343106659970    0.6260027842933537    0.1202994258957240 Se
   0.1183000972572965    0.8832104119443626    0.6172538548021871 Se
   0.1121274910506709    0.6120329521809996    0.8847294777312533 Se
   0.8811615286120165    0.8772909411164832    0.3786603858952236 Se
   0.8613277730670141    0.6294755842243279    0.6310381534374527 Se
   0.6327848627242443    0.3670904892335638    0.1334349921223889 Se
   0.6352370783585921    0.6299671629318057    0.8668419465398775 Se
   0.8645180553101435    0.3666899985552752    0.3661856101008739 Se
