Mg7 Sc16 Se32
1.0
  11.1003847944368736    0.0000000000000000    0.0000000000000000
   0.0000000000000000   11.1003847944368736    0.0000000000000000
  -0.0000000000000000   -0.0000000000000000   11.1003847944368736
Mg Sc Se
7 16 32
direct
   0.4991869257122068    0.0023611853648245    0.4989654430459193 Mg
   0.2495240447951377    0.7498428073705935    0.7499911646657392 Mg
   0.1676516563672944    0.2175894740955131    0.2525283118336887 Mg
   0.7521768819041678    0.2485138020470954    0.7529836320238871 Mg
   0.9992556791791349    0.9997343528404080    0.0005267530606542 Mg
   0.7487362461597430    0.7475756192618781    0.2475567439185426 Mg
   0.9997349512858618    0.5003089883756519    0.4996378286633615 Mg
   0.1268136936829225    0.8716796866522959    0.3767557892263083 Sc
   0.3752852539104392    0.1257150775309674    0.8744061045227041 Sc
   0.3745914121640220    0.3719729861771385    0.6253436891136191 Sc
   0.1252533249180396    0.1255752562716093    0.6247491272038761 Sc
   0.1246028990674091    0.3757985513153547    0.8734198491855413 Sc
   0.3772697622859135    0.6269518646309122    0.3726139906537947 Sc
   0.3737872544321079    0.8770185916201204    0.1256086560044828 Sc
   0.1241765548479327    0.6256771685017664    0.1222274847114724 Sc
   0.6246339673163837    0.8766598550927547    0.8742289552748654 Sc
   0.8750746937713151    0.1257228447697779    0.3713136297223266 Sc
   0.8768098205409441    0.3724945155673973    0.1247443477250481 Sc
   0.6235932712741881    0.1283061394181683    0.1273169484161186 Sc
   0.6248298434643617    0.3750011928947474    0.3751524405632026 Sc
   0.8754481090640852    0.6248254818841046    0.8756088153120130 Sc
   0.8748118144313110    0.8739789064386541    0.6260400076020772 Sc
   0.6251532555692467    0.6246494217029988    0.6257798933134969 Sc
   0.3824496340246292    0.1154351629977198    0.1166026664400365 Se
   0.6197378648809332    0.3803523932327544    0.6173749389833785 Se
   0.6169388156034418    0.1174410470520875    0.8871233437781086 Se
   0.3825697590248607    0.3836505099585326    0.3812440419024373 Se
   0.3696005373042202    0.1317464343074978    0.6322616865271803 Se
   0.1328656219942073    0.8674038795897919    0.1330790615660778 Se
   0.1334542004911862    0.1310392899235562    0.8646237257739147 Se
   0.3672766311979946    0.8678726156058035    0.3664822595586689 Se
   0.3833359217999440    0.6160943861290772    0.6161707560492752 Se
   0.6134085113163081    0.8837539447200321    0.1176245590357588 Se
   0.6167731984460142    0.6142664234306865    0.3861231977203640 Se
   0.3850206375428606    0.8819283289027121    0.8834534386484227 Se
   0.3651697820591944    0.6343422357618619    0.1341193512994497 Se
   0.1341105007058072    0.3660573354208518    0.6321308831019027 Se
   0.1328475849508827    0.6333535880074525    0.3674414349214506 Se
   0.3678934135456781    0.3669011596505555    0.8669765838582424 Se
   0.8836497171194659    0.1166957829094262    0.6182759070273828 Se
   0.1170926243077523    0.3833466232857273    0.1176731026380053 Se
   0.1166929748840496    0.1158554742625166    0.3822988993245392 Se
   0.8796607010023525    0.3813580304485171    0.8853405680729349 Se
   0.8654168537669491    0.1314280098353989    0.1333296697092780 Se
   0.6296745249512053    0.8650898297714406    0.6324282455328489 Se
   0.6326534358670962    0.1346256926476290    0.3678639784602041 Se
   0.8665123731994896    0.8697439189681478    0.8680721600312155 Se
   0.8828857473535807    0.6168255783186162    0.1164874825937208 Se
   0.1175749817393333    0.8829576949622510    0.6170217661177128 Se
   0.1167335050279808    0.6165458520359045    0.8835515724331476 Se
   0.8822097456720507    0.8871496647377668    0.3823917442948149 Se
   0.8677733048239188    0.6318341577627145    0.6328922524233231 Se
   0.6296209055794131    0.3697040894520667    0.1320814856640926 Se
   0.6332252660594794    0.6311728772751706    0.8668757463716366 Se
   0.8684209827851843    0.3704551922105013    0.3656846929139487 Se
