Mg7 Sc16 Se32
1.0
  11.1003847944368736    0.0000000000000000    0.0000000000000000
   0.0000000000000000   11.1003847944368736    0.0000000000000000
  -0.0000000000000000   -0.0000000000000000   11.1003847944368736
Mg Sc Se
7 16 32
direct
   0.1919810069513306    0.2856297469962737    0.2176690840910085 Mg
   0.2494256925831265    0.7504084637519796    0.7524730455877819 Mg
   0.4968768108352524    0.4982737751949493    0.0018283270628485 Mg
   0.7498597647384088    0.2523009242462875    0.7493900612515632 Mg
   0.0000813273117199    0.0008916103883817    0.0009259517312852 Mg
   0.7485398029190673    0.7517748143553007    0.2526310267193558 Mg
   0.9970207295659528    0.4996515911353822    0.4974677295468203 Mg
   0.1221536851242255    0.8739321984936573    0.3731013583819197 Sc
   0.3749713777651298    0.1251296428702312    0.8747976266096862 Sc
   0.3744544284255902    0.3722267621661764    0.6229247336040369 Sc
   0.1234902124709588    0.1280860559276664    0.6235432478850540 Sc
   0.1259296836078210    0.3757484088662814    0.8763588337861344 Sc
   0.3749395675301458    0.6286190955389346    0.3731910700364156 Sc
   0.3750870755180498    0.8746685524666420    0.1246374393296795 Sc
   0.1266916827432329    0.6267357626128838    0.1244574316086324 Sc
   0.6249364734458978    0.8749377544212988    0.8752505992263672 Sc
   0.8755346229947710    0.1251079872513094    0.3752350135120781 Sc
   0.8734408312284144    0.3754778276767810    0.1246539613923750 Sc
   0.6253185040969119    0.1240669421306995    0.1254614688707203 Sc
   0.6259126683032948    0.3744368675191352    0.3759489017109666 Sc
   0.8739369905473571    0.6239061292754844    0.8748758932644880 Sc
   0.8750340469294251    0.8743837478498807    0.6238519550737169 Sc
   0.6250018543015418    0.6249756982590263    0.6249324245610159 Sc
   0.3834589876437263    0.1165546513736311    0.1164695097733698 Se
   0.6175194626401744    0.3836189725414820    0.6148262080540874 Se
   0.6171218594084115    0.1171170317143957    0.8828826462320192 Se
   0.3848645997105985    0.3810674112312437    0.3824983405832322 Se
   0.3638532747112703    0.1333025567518620    0.6346155184011195 Se
   0.1329428987723767    0.8663569173176129    0.1353149850827963 Se
   0.1320410243852224    0.1300786630983204    0.8660469595619402 Se
   0.3690848367564926    0.8663298606724550    0.3707344338874303 Se
   0.3819724012364302    0.6158351819175624    0.6189594433141968 Se
   0.6150596499610262    0.8827367881239911    0.1154518960682547 Se
   0.6170041731972132    0.6182457634661921    0.3820120162586410 Se
   0.3829762651271008    0.8839653143265546    0.8810957135573966 Se
   0.3649109727771830    0.6318022952956723    0.1349326784146493 Se
   0.1298160972974280    0.3675274918927058    0.6340276837531041 Se
   0.1328997557932006    0.6323996172526050    0.3675989877222219 Se
   0.3676087745880885    0.3680879272241885    0.8673336500984301 Se
   0.8813747001224143    0.1189191049178342    0.6204500936463431 Se
   0.1209885464037215    0.3826829119726892    0.1160010535596395 Se
   0.1187011303717307    0.1142154227626127    0.3852751659452413 Se
   0.8804266943589423    0.3833449015407881    0.8848721703932543 Se
   0.8682367980244797    0.1328400371473610    0.1336610980740192 Se
   0.6353488803459721    0.8704304998395134    0.6343785917313338 Se
   0.6347969034116393    0.1331828312572773    0.3660621424108216 Se
   0.8670794446394209    0.8682819549776105    0.8658373945388861 Se
   0.8852845247335683    0.6158997093898666    0.1193262159965926 Se
   0.1183841776763442    0.8836664039474642    0.6171493478413919 Se
   0.1168999375350825    0.6163976404382802    0.8831405138419098 Se
   0.8827707455452259    0.8833373737451730    0.3812305752162828 Se
   0.8677051733747175    0.6338413734032287    0.6334359069176105 Se
   0.6327076050797926    0.3674943739870586    0.1319734085061051 Se
   0.6340524470043257    0.6337944783853687    0.8674459762247034 Se
   0.8666634194727625    0.3646381423393228    0.3668504003706794 Se
