Mg7 Sc16 Se32
1.0
  11.1003847944368736    0.0000000000000000    0.0000000000000000
   0.0000000000000000   11.1003847944368736    0.0000000000000000
  -0.0000000000000000   -0.0000000000000000   11.1003847944368736
Mg Sc Se
7 16 32
direct
   0.4993762201379978    0.9995315047807390    0.5020022693428935 Mg
   0.2558342201305985    0.4735969315134713    0.4559940444685113 Mg
   0.4980574765404813    0.4994198586785634    0.9987772958958229 Mg
   0.7493487352580482    0.2477838066864366    0.7538445227493151 Mg
   0.9978672700840442    0.0007949748469785    0.9975774800870608 Mg
   0.7528067650589263    0.7533055249867379    0.2489452963788601 Mg
   0.0012920940275197    0.5031755494602705    0.4983289073259448 Mg
   0.1250350156565081    0.8750306516491447    0.3748750294654626 Sc
   0.3736550841377250    0.1244755401949566    0.8738156437436005 Sc
   0.3760377329562980    0.3754273876076742    0.6264596070877798 Sc
   0.1243437020000702    0.1245160713507811    0.6246606633355034 Sc
   0.1237122071745204    0.3733079609653804    0.8736931472465874 Sc
   0.3758239581058281    0.6240959377722545    0.3764531785641252 Sc
   0.3763023638508374    0.8782455187280729    0.1256129049021443 Sc
   0.1257052610719600    0.6237136923410577    0.1271544011677349 Sc
   0.6258956046642971    0.8752637049811851    0.8759531496447585 Sc
   0.8749431934484008    0.1230949759665480    0.3748778287754863 Sc
   0.8752237556051223    0.3754588510546057    0.1288041103307147 Sc
   0.6256782732308135    0.1216894184867255    0.1230306690274130 Sc
   0.6251238363353030    0.3734029532344044    0.3761699728663125 Sc
   0.8738155396721203    0.6254148131117674    0.8738434039169765 Sc
   0.8738748106597165    0.8723189269824403    0.6247535067569834 Sc
   0.6240306488750347    0.6249821309226729    0.6267689079516575 Sc
   0.3831177981838483    0.1168729582315777    0.1172581034916493 Se
   0.6172580338634488    0.3849933168872391    0.6154179579683811 Se
   0.6175793120720504    0.1150380719360676    0.8827928486701592 Se
   0.3801425173930512    0.3813138406529504    0.3833168732553845 Se
   0.3674612152001993    0.1310496278539577    0.6316328552236957 Se
   0.1326678437144464    0.8652078642774961    0.1340022747849559 Se
   0.1337214113835463    0.1325068007292850    0.8661606350383488 Se
   0.3679239075483089    0.8663527972724037    0.3674562134577636 Se
   0.3838579178733212    0.6203200144533848    0.6147886240477085 Se
   0.6178130615203972    0.8859307399183884    0.1161209834704759 Se
   0.6182979758636656    0.6170464378580873    0.3840294361410549 Se
   0.3800446848420989    0.8814313686677820    0.8823232166473260 Se
   0.3680760730242844    0.6330539188909039    0.1322352905836336 Se
   0.1325415718284225    0.3661902959636010    0.6364453919940409 Se
   0.1337862996415231    0.6321618305917207    0.3681411323636581 Se
   0.3674311902401543    0.3688238740998770    0.8679692418828584 Se
   0.8818050208562282    0.1159420278866503    0.6183360813704203 Se
   0.1168988925913769    0.3854389278758901    0.1178753623363881 Se
   0.1174003473857644    0.1171867208780486    0.3828487161674833 Se
   0.8795894216060794    0.3827431446723598    0.8842618227271916 Se
   0.8678674283815527    0.1303236756834351    0.1351087144552526 Se
   0.6307278845256812    0.8682019276753959    0.6331818256113337 Se
   0.6339984808235488    0.1342138540454002    0.3655096096364172 Se
   0.8666795139055651    0.8669599976568747    0.8674830341916385 Se
   0.8829730772919031    0.6170556036000615    0.1176453929062289 Se
   0.1179492225933704    0.8865873059053101    0.6188317516197113 Se
   0.1207963155961071    0.6188739839626043    0.8837584255005044 Se
   0.8812841248176355    0.8853267286265666    0.3816462514184779 Se
   0.8667723008121179    0.6315942982031806    0.6330116017745914 Se
   0.6323898410605681    0.3674436398278666    0.1337248174148309 Se
   0.6333801006609056    0.6327219561284457    0.8679746873770759 Se
   0.8680381898688690    0.3671339792633627    0.3664183684801607 Se
