Mg7 Sc16 Se32
1.0
  11.1003847944368736    0.0000000000000000    0.0000000000000000
   0.0000000000000000   11.1003847944368736    0.0000000000000000
  -0.0000000000000000   -0.0000000000000000   11.1003847944368736
Mg Sc Se
7 16 32
direct
   0.1699971082912141    0.2980584387360749    0.2012696742435484 Mg
   0.2396471599454257    0.7498003792473915    0.7542785604084445 Mg
   0.4897977556742344    0.5009711616448708    0.0077954019207279 Mg
   0.7482878875972615    0.2494961098682670    0.7499208352827955 Mg
   0.9998579707593400    0.0000582596094835    0.9973406237478689 Mg
   0.7456864130312276    0.7514515081753106    0.2455541267538928 Mg
   0.9865367949698729    0.4930416808188889    0.5020491142305540 Mg
   0.1232051618645129    0.8733671029352148    0.3828704288503487 Sc
   0.3769111642721015    0.1191655371919034    0.8736190598896598 Sc
   0.3776977605289619    0.3784762988617817    0.6223007914353672 Sc
   0.1175216130447554    0.1224681494584308    0.6272682248660700 Sc
   0.1169728982505192    0.3774773946109981    0.8661870054823266 Sc
   0.3776643686290183    0.6237132266581088    0.3719747662119953 Sc
   0.3828396061303888    0.8770244256143809    0.1239856248271962 Sc
   0.1138674796050795    0.6165149241920584    0.1182777967515808 Sc
   0.6264017648668067    0.8746680464865776    0.8841887249216719 Sc
   0.8709176401691731    0.1307064279938454    0.3729039825495882 Sc
   0.8775219998268760    0.3750129892746129    0.1253562837000474 Sc
   0.6240493482441003    0.1251876268281165    0.1237670077211746 Sc
   0.6215650466718000    0.3745852915857854    0.3732413624386553 Sc
   0.8828704952057721    0.6273221361512810    0.8824404629517154 Sc
   0.8659915349508810    0.8639153786367489    0.6301597164966788 Sc
   0.6156403430105701    0.6270127690087987    0.6218432479716338 Sc
   0.3905826398144047    0.1143143900203892    0.1284847455407773 Se
   0.6246533330349572    0.3943114614056623    0.6107739708307619 Se
   0.6225600274273255    0.1111376598572539    0.8876794774658400 Se
   0.3789712159868687    0.3771014736805398    0.3864903242296625 Se
   0.3675003872364609    0.1316000608807793    0.6335862366682015 Se
   0.1337804869937029    0.8680531416588253    0.1353325711553279 Se
   0.1258798056348846    0.1305850186707465    0.8704712168642234 Se
   0.3627442330552949    0.8597170374490036    0.3671678639421560 Se
   0.3834901938133664    0.6149213396850912    0.6159261254885845 Se
   0.6165640366171380    0.8810106048938293    0.1168038812260498 Se
   0.6166226780297200    0.6169686654199582    0.3814961887359950 Se
   0.3806337816861800    0.8915786797395958    0.8757283820851073 Se
   0.3605544628988378    0.6263007044950858    0.1376070189253807 Se
   0.1303477779758515    0.3702646362416624    0.6265872339571759 Se
   0.1291333409556884    0.6301032354634235    0.3681747187115366 Se
   0.3696799359657456    0.3636020634749985    0.8690501524880244 Se
   0.8849760372643454    0.1204396265578783    0.6226787816678729 Se
   0.1112385152083367    0.3954161894641632    0.1095401646094615 Se
   0.1166345444582536    0.1176080543808065    0.3827268549335519 Se
   0.8825509475339034    0.3833902496130542    0.8835620794797767 Se
   0.8729847011304744    0.1376731548824390    0.1335880727206484 Se
   0.6308321261699298    0.8730628346655919    0.6345872894991424 Se
   0.6323951163795016    0.1324902946204633    0.3672987337684397 Se
   0.8764252208308940    0.8615763719249699    0.8704954519228147 Se
   0.8773367496494464    0.6260522060400771    0.1193174652977874 Se
   0.1128412131420315    0.8834108992781989    0.6173944299651036 Se
   0.1145534798263781    0.6193956527600757    0.8827730286057229 Se
   0.8858536081127183    0.8915526843347741    0.3868433899878930 Se
   0.8625610178335619    0.6225642650741845    0.6349862111434444 Se
   0.6313738673332119    0.3643202556240911    0.1353723616254671 Se
   0.6461748935929660    0.6339251239551847    0.8656465799824085 Se
   0.8675817329658823    0.3642386521709035    0.3679307054926421 Se
