Mg7 Sc16 Se32
1.0
  11.1003847944368736    0.0000000000000000    0.0000000000000000
   0.0000000000000000   11.1003847944368736    0.0000000000000000
  -0.0000000000000000   -0.0000000000000000   11.1003847944368736
Mg Sc Se
7 16 32
direct
   0.4965370862430432    0.0108278201595533    0.5034007989919977 Mg
   0.2662933025286860    0.7537590227510188    0.7527353440243152 Mg
   0.4814868990024158    0.5085203183460253    0.0113417169058119 Mg
   0.7650941700050392    0.2532892853051440    0.7669546059451353 Mg
   0.2018492938449900    0.2802439223302499    0.2502674451613227 Mg
   0.7558037914991388    0.7471513860762466    0.2461054190490598 Mg
   0.0088987803280610    0.5034808407582715    0.5105478370471552 Mg
   0.1406851396103657    0.8720938560738632    0.3719159339177663 Sc
   0.3736407517129373    0.1235466832441625    0.8757471436308920 Sc
   0.3741006328358876    0.3893511656164554    0.6214329889657578 Sc
   0.1269481239674216    0.1319863344129881    0.6296846503276584 Sc
   0.1352724961631125    0.3895158861338633    0.8771707279516350 Sc
   0.3753324700665777    0.6250913292812269    0.3758989189935669 Sc
   0.3746721151463576    0.8753316607909924    0.1253133823621405 Sc
   0.1339089815572710    0.6181876012656982    0.1385903964485621 Sc
   0.6198316188916275    0.8961108102390980    0.8818321848198173 Sc
   0.8861209217103921    0.1424320402569035    0.3829604956604226 Sc
   0.8633873947419426    0.3701588221406369    0.1187865702271995 Sc
   0.6208838607213738    0.1235643304472689    0.1291126095917295 Sc
   0.6187051919486387    0.3831296265776289    0.3602689459895996 Sc
   0.8694767300653928    0.6281196938121719    0.8935351490659633 Sc
   0.8778586421777256    0.8763107207740147    0.6285498870317804 Sc
   0.6249457615346558    0.6250596060185992    0.6250866443682462 Sc
   0.3797489014088334    0.1128489358923445    0.1089196317706384 Se
   0.6217918234447274    0.3947279335537458    0.6177033518864719 Se
   0.6185418923133479    0.1177023729615058    0.8829710244232132 Se
   0.3774254691839493    0.3645866959471694    0.3707800564097476 Se
   0.3644715315854348    0.1375228811578505    0.6235036191015176 Se
   0.1103134932647294    0.8670692853317384    0.1343203253102921 Se
   0.1245367952212415    0.1371398624449938    0.8646497808049832 Se
   0.3673207271865160    0.8656591293499709    0.3685619227364522 Se
   0.3835345390461251    0.6053285862394684    0.6215669152788351 Se
   0.6165750054514948    0.8733353201519441    0.1177126971003263 Se
   0.6323985938147119    0.6056401529601732    0.3739949687248679 Se
   0.3748774914935404    0.8913136799662881    0.8843253436809209 Se
   0.3621261988921284    0.6297559267117365    0.1377111633899015 Se
   0.1344989456115854    0.3687056169856961    0.6223856033569579 Se
   0.1217851780229801    0.6278856775964851    0.3869912413887810 Se
   0.3731304203268903    0.3543654097652288    0.8616060260685521 Se
   0.8796930627186718    0.1190600996621149    0.6205288798215663 Se
   0.1028900601325583    0.3963722580118266    0.1198825583865997 Se
   0.1093947168813104    0.1149987945634569    0.3679695893299549 Se
   0.8798365084456538    0.3860901959131549    0.8851229593511836 Se
   0.8672687898554295    0.1328982479638147    0.1333292772861626 Se
   0.6188498637913964    0.8753082620797872    0.6282350723470065 Se
   0.6305304300637885    0.1266348170761248    0.3551688384433575 Se
   0.8668575853231176    0.8672939798305815    0.8671526842833874 Se
   0.8777120702120932    0.6061047849131740    0.1158698010350134 Se
   0.1162348438327660    0.8885018298889669    0.6161034997113234 Se
   0.1172461187752457    0.6177303457629354    0.8788909743289465 Se
   0.8872732333118857    0.8777103775282572    0.3845881774886458 Se
   0.8744323845930020    0.6398688985306736    0.6363180291063221 Se
   0.6340202790037117    0.3850600110886500    0.1411319077511702 Se
   0.6269757355681789    0.6319169946731491    0.8464245742386404 Se
   0.8683321277963553    0.3812809994268784    0.3677046342872243 Se
