Mg7 Sc16 Se32
1.0
  11.1003847944368736    0.0000000000000000    0.0000000000000000
   0.0000000000000000   11.1003847944368736    0.0000000000000000
  -0.0000000000000000   -0.0000000000000000   11.1003847944368736
Mg Sc Se
7 16 32
direct
   0.4983216624923187    0.9943250862632056    0.5156722003764715 Mg
   0.2507692766512626    0.7510623725181618    0.7480144558053725 Mg
   0.2114530699369434    0.2748910646444722    0.1972248862998300 Mg
   0.7535844996348963    0.2441443351323778    0.7396744148044425 Mg
   0.9994546321561961    0.9983410641878040    0.9969789699459251 Mg
   0.7502165835945126    0.7529994497459066    0.2315511513384892 Mg
   0.9958359341208162    0.5050475801199908    0.4998826586267035 Mg
   0.1323566816065032    0.8678447274358596    0.3933863502399103 Sc
   0.3658354395547308    0.1266207267649390    0.8743152791243883 Sc
   0.3801808358514242    0.3729465047339072    0.6046523225312476 Sc
   0.1246141677673563    0.1145084596856274    0.6135056381827471 Sc
   0.1160456670520256    0.3764785729322421    0.8625054814321758 Sc
   0.3755936957207068    0.6246997024687825    0.3762292338987850 Sc
   0.3643273963066673    0.8943327974483524    0.1190207314972842 Sc
   0.1248914610968740    0.6253372555153021    0.1247712509086892 Sc
   0.6339494924630820    0.8843166604929660    0.8820342549094969 Sc
   0.8756183301235649    0.1131175650433959    0.3551816477949571 Sc
   0.8805456385521665    0.3586463672702399    0.1359267353845547 Sc
   0.6224722441413031    0.1237187707764768    0.1227595960205938 Sc
   0.6290652340980328    0.3814191252056635    0.3763540571785452 Sc
   0.8855348569294719    0.6376650222897596    0.8672986935876182 Sc
   0.8758780150235124    0.8751604705940655    0.6225589558505066 Sc
   0.6211591686279931    0.6199370844539073    0.6205497594479230 Sc
   0.3787789717211047    0.1133644770887296    0.1194469042252668 Se
   0.6282632313437985    0.3836745104998477    0.6199327704051324 Se
   0.6171809179841797    0.1171314678416181    0.8830606465633389 Se
   0.3649536522304763    0.3912597320502084    0.3849596730062841 Se
   0.3718064996433211    0.1273274307002143    0.6486340609600234 Se
   0.1348036954104843    0.8685133408430417    0.1317374101253136 Se
   0.1412801054093060    0.1286353373807334    0.8532515617206933 Se
   0.3709345105892057    0.8483847030498600    0.3646939451811008 Se
   0.3965284002074799    0.6260759418801324    0.6228239174380371 Se
   0.6102127298313065    0.8654302762644438    0.1213371791565380 Se
   0.6202530180572954    0.6200749329400288    0.3845379254923110 Se
   0.3799426392638361    0.8834870936799889    0.8794004368459339 Se
   0.3660081872479876    0.6104685234022983    0.1363759341581434 Se
   0.1394915349692002    0.3618604033872422    0.6497770607417993 Se
   0.1292470848643315    0.6520383209813017    0.3629103414881267 Se
   0.3700409450224431    0.3759972021240967    0.8544919669228230 Se
   0.8872191094488203    0.1139951266444314    0.6047978009703564 Se
   0.1230711134222945    0.3948574324937149    0.1139693105282554 Se
   0.1231054172921063    0.1108063894389656    0.3765820106614858 Se
   0.8955133976656304    0.3775224698279221    0.8843154342815749 Se
   0.8680802080032319    0.1303419345528656    0.1338805251110113 Se
   0.6325928879176268    0.8498861909942957    0.6379094815644684 Se
   0.6274650498683384    0.1201248463090943    0.3755650092676075 Se
   0.8827823085402068    0.8807677790487075    0.8598286189357727 Se
   0.8828717059346607    0.6218880922813437    0.1139904329859373 Se
   0.1225746199676768    0.8898575548575308    0.6386951458033148 Se
   0.1213514675453508    0.6194912942737706    0.8789252919975314 Se
   0.8845843190822099    0.8968690337047657    0.3705932676138545 Se
   0.8686708250699464    0.6236090453171342    0.6408022102934287 Se
   0.6171806840641590    0.3549341497561320    0.1366608669298400 Se
   0.6333175163425055    0.6413500521475620    0.8696566825905744 Se
   0.8677924636071542    0.3673558051195637    0.3672091897810486 Se
