Mg7 Sc16 Se32
1.0
  11.1003847944368736    0.0000000000000000    0.0000000000000000
   0.0000000000000000   11.1003847944368736    0.0000000000000000
  -0.0000000000000000   -0.0000000000000000   11.1003847944368736
Mg Sc Se
7 16 32
direct
   0.3594293337544768    0.1491895544065906    0.3666583109294580 Mg
   0.2536129339540796    0.7516362654977005    0.7494914548362089 Mg
   0.5014787245918026    0.4997646233719538    0.9985395974765843 Mg
   0.7484712282118522    0.2447968643256018    0.7450917528775665 Mg
   0.9981454356159204    0.9970490538254656    0.0016482717902684 Mg
   0.7498385117848760    0.7500613928013756    0.2500606322931340 Mg
   0.0006635357135693    0.4987647895090768    0.4983488171914725 Mg
   0.1277284273537987    0.8802814095479450    0.3780500189982739 Sc
   0.3732554320324818    0.1269150662833264    0.8778108157904236 Sc
   0.3715812048625568    0.3740078993332059    0.6254992206302695 Sc
   0.1203374045265775    0.1302209507725390    0.6261977196348271 Sc
   0.1215645228234062    0.3710434956559874    0.8708284219889147 Sc
   0.3802764537300560    0.6217794223121699    0.3774373327245308 Sc
   0.3762686414107294    0.8733496136410459    0.1292829335076977 Sc
   0.1226110085628766    0.6277372473189347    0.1200719298344013 Sc
   0.6249803880026534    0.8763862476536610    0.8759608178934253 Sc
   0.8770479368749911    0.1272143521769908    0.3769612320665637 Sc
   0.8749923378726564    0.3749160070171924    0.1250652984380311 Sc
   0.6305074612355478    0.1262150434119637    0.1270641653418334 Sc
   0.6243011561383222    0.3777245238803079    0.3752317942479059 Sc
   0.8740285205086237    0.6264067517982582    0.8785788312408559 Sc
   0.8749086565618281    0.8699724176818040    0.6245136436752148 Sc
   0.6248719054530045    0.6229600495143969    0.6319569484228474 Sc
   0.3777949507070298    0.1165802942642827    0.1170044783510485 Se
   0.6180777111346721    0.3838843820630926    0.6200370268737057 Se
   0.6144368769015862    0.1169727769332070    0.8797870164335398 Se
   0.3834544039707531    0.3817390773896966    0.3844201474340954 Se
   0.3663788260228710    0.1306852700434616    0.6343985022687681 Se
   0.1312481252742215    0.8650757827806873    0.1310416536724064 Se
   0.1294474663710274    0.1368596178189556    0.8631632786466997 Se
   0.3714718082224498    0.8721359663218317    0.3703776727506010 Se
   0.3796692850391986    0.6174255469087845    0.6184019429039698 Se
   0.6182607826890071    0.8790323327339029    0.1151607855666407 Se
   0.6142205375987021    0.6170542686857128    0.3796865733392064 Se
   0.3859001144615873    0.8806453742776061    0.8791333071509051 Se
   0.3666627365399644    0.6332188918157829    0.1324206226063591 Se
   0.1335167724178428    0.3668010997062369    0.6353491851033912 Se
   0.1350080537902460    0.6279096910782552    0.3665447635796590 Se
   0.3673393084711933    0.3674849032561061    0.8667695431973114 Se
   0.8828911708013026    0.1174237036946444    0.6174374702845769 Se
   0.1201127242797694    0.3827097312640216    0.1181345754438340 Se
   0.1146292086261974    0.1172543345931746    0.3818477018162158 Se
   0.8814548645232358    0.3862075593319913    0.8824412875989721 Se
   0.8672229819586822    0.1339702178338070    0.1317286760329148 Se
   0.6329762233177351    0.8670375322820828    0.6339759830448983 Se
   0.6321338612217139    0.1350785151546049    0.3642948468499622 Se
   0.8668263469808677    0.8677927515894960    0.8673215315717496 Se
   0.8820172381604342    0.6173671869542174    0.1197411279489041 Se
   0.1192067292592288    0.8817124400229019    0.6170936469301542 Se
   0.1141364772637806    0.6200533678369250    0.8851658596682672 Se
   0.8838227086158925    0.8831253378183165    0.3829380896921277 Se
   0.8669164728463584    0.6328646138585533    0.6325412151615943 Se
   0.6329159116728971    0.3667963352951121    0.1329946777032416 Se
   0.6291819486597622    0.6331125734030998    0.8649456405371161 Se
   0.8671688150996379    0.3668365889545009    0.3676801330656873 Se
