Mg7 Sc16 Se32
1.0
  11.1003847944368736    0.0000000000000000    0.0000000000000000
   0.0000000000000000   11.1003847944368736    0.0000000000000000
  -0.0000000000000000   -0.0000000000000000   11.1003847944368736
Mg Sc Se
7 16 32
direct
   0.4990260649855390    0.9967007900148241    0.4975593008160837 Mg
   0.2519547416273913    0.7559372303038281    0.7526271242470832 Mg
   0.5020209841636719    0.5048308388519874    0.0024833230490225 Mg
   0.7458731617871505    0.2519185063465817    0.7512481817917150 Mg
   0.9994954800835856    0.9994983681856379    0.0002801533794111 Mg
   0.7394901165902923    0.7503405169619716    0.2526930302809552 Mg
   0.2474948500034450    0.2488256756371902    0.2485630608748314 Mg
   0.1266166718946507    0.8853174380891812    0.3744163257388199 Sc
   0.3754216528582750    0.1238774998470190    0.8745321130357946 Sc
   0.3704758134324448    0.3735559441043223    0.6326332973536517 Sc
   0.1254266046150178    0.1253441864233086    0.6256825140607798 Sc
   0.1199730835669662    0.3685958995208055    0.8689352683264969 Sc
   0.3745167424609738    0.6230281199928476    0.3740030856433982 Sc
   0.3708836046676618    0.8700630716046457    0.1239256541812619 Sc
   0.1216011505200987    0.6184899621118888    0.1220789980992298 Sc
   0.6246029586253043    0.8775527340575188    0.8750155314110407 Sc
   0.8753864216749977    0.1250129375462496    0.3764367344419731 Sc
   0.8761429807392217    0.3749360302781808    0.1215438500060308 Sc
   0.6226802493396892    0.1219762709447833    0.1218854537858671 Sc
   0.6311867983432407    0.3820878368623710    0.3740943634752461 Sc
   0.8779401512349395    0.6275927543869245    0.8786026027342493 Sc
   0.8709122974629604    0.8749194938440166    0.6264497692663409 Sc
   0.6297671721928539    0.6290656278330556    0.6229837851577678 Sc
   0.3821452318046835    0.1180317721512735    0.1177116420048580 Se
   0.6102876798004960    0.3838763975808244    0.6153069887496420 Se
   0.6158774757618874    0.1181159680197405    0.8824603950881617 Se
   0.3790545087749320    0.3861392686793166    0.3840150975357696 Se
   0.3690640229561585    0.1323715188171818    0.6335482785458453 Se
   0.1323610689586257    0.8623281712112103    0.1260524960306622 Se
   0.1358017179449987    0.1313515211524455    0.8677002444915907 Se
   0.3672826151433104    0.8698498153009139    0.3630685719988690 Se
   0.3786063748985120    0.6200885620257715    0.6197449652237079 Se
   0.6125826508552622    0.8787442448139722    0.1098967747175163 Se
   0.6179749582012993    0.6184296189692627    0.3807122760386547 Se
   0.3764810534198310    0.8843953244386830    0.8796834044534673 Se
   0.3664727700980546    0.6329371723936620    0.1320903109700324 Se
   0.1347182745626041    0.3679308543366104    0.6341559257622601 Se
   0.1297042526729521    0.6280229359094613    0.3733389433560534 Se
   0.3699566469453961    0.3652790732659209    0.8738533193999386 Se
   0.8802884124542388    0.1150086204663434    0.6239236407211803 Se
   0.1174641946413382    0.3825882846864467    0.1177145658029202 Se
   0.1180338346744017    0.1155704578203858    0.3854965509447227 Se
   0.8785335999532824    0.3880295730733072    0.8886826805553522 Se
   0.8679622988041291    0.1332728408047973    0.1328948782974279 Se
   0.6348286507268917    0.8699633788733838    0.6260850971626876 Se
   0.6308910348868232    0.1346935527536571    0.3672164547058928 Se
   0.8682941908107115    0.8665493158774347    0.8696358526572054 Se
   0.8795771774470752    0.6155605299558726    0.1139611606184373 Se
   0.1169558945771016    0.8824965672680503    0.6173278086980661 Se
   0.1226390275219011    0.6255478585069413    0.8807900041117723 Se
   0.8822594791171602    0.8797237482001201    0.3817791221832402 Se
   0.8685536236165260    0.6271416214973610    0.6372455691283211 Se
   0.6303722494179865    0.3746930607599674    0.1386959926661454 Se
   0.6303209755633804    0.6316205203683880    0.8687872390132808 Se
   0.8712018824951550    0.3652744843637619    0.3691193144463135 Se
