Mg7 Sc16 Se32
1.0
  11.1003847944368736    0.0000000000000000    0.0000000000000000
   0.0000000000000000   11.1003847944368736    0.0000000000000000
  -0.0000000000000000   -0.0000000000000000   11.1003847944368736
Mg Sc Se
7 16 32
direct
   0.5069296243178084    0.0049017054974053    0.4959011085137848 Mg
   0.1748660173578696    0.2001112471837715    0.1493012881800017 Mg
   0.5094162832456806    0.4927105600374486    0.0140105704350207 Mg
   0.7500149401129447    0.2492802892688410    0.7498988944922794 Mg
   0.0035723156745154    0.0066467691494572    0.9968066077299662 Mg
   0.7517377998116512    0.7514538299629517    0.2493694503344549 Mg
   0.0041402850125255    0.5076695304328467    0.4960125708735739 Mg
   0.1239722851503420    0.8879808261228332    0.3846858319901550 Sc
   0.3763990779656754    0.1252223961117966    0.8760473950160209 Sc
   0.3843483291436605    0.3889522205191610    0.6367236392740659 Sc
   0.1425154275350716    0.1273926804888477    0.6170407732713007 Sc
   0.1331854817935143    0.3760246374981193    0.8720066032828209 Sc
   0.3692158394988933    0.6233441134357898    0.3724585828975940 Sc
   0.3739133943163257    0.8759139801757685    0.1396508211716557 Sc
   0.1249084392872932    0.6254149687471255    0.1252875256443360 Sc
   0.6275447443252240    0.8732930326637438    0.8803958658367586 Sc
   0.8762678226117572    0.1248720565754293    0.3752395957418318 Sc
   0.8831515544325099    0.3844713872532068    0.1163975838202243 Sc
   0.6281932191436964    0.1087043779664555    0.1300112866261688 Sc
   0.6291762664362379    0.3851715085245911    0.3694998714834807 Sc
   0.8697181567824164    0.6369371115144371    0.8727399607959501 Sc
   0.8849515225587785    0.8782542639679677    0.6170150699957756 Sc
   0.6289229852944465    0.6299999695163874    0.6349447069288531 Sc
   0.3855816214101052    0.1190259314639751    0.1154307405856453 Se
   0.6172499169192719    0.3829635963808514    0.6172687466131712 Se
   0.6166357785896425    0.1022983915593412    0.8888345357525615 Se
   0.3942223770739186    0.3838989805909893    0.3807179594599601 Se
   0.3565614808346523    0.1328796541340131    0.6307623999950654 Se
   0.1339582762334992    0.8575871946176875    0.1321232244367718 Se
   0.1366670310893357    0.1259386476320890    0.8655582511813961 Se
   0.3682921219815989    0.8698675044198295    0.3687895851739731 Se
   0.3770845764517807    0.6078586919654880    0.6146451219174558 Se
   0.6156557064917342    0.8756558240241988    0.1093294127330142 Se
   0.6174379785535853    0.6259750171633817    0.3735561824931666 Se
   0.3907235037963774    0.8790098048705339    0.8939692524601374 Se
   0.3660920230580952    0.6332897679573573    0.1331183557147093 Se
   0.1344951428744639    0.3676621640975953    0.6311079912294494 Se
   0.1365265682578495    0.6336671879877932    0.3538153264786980 Se
   0.3556835480698963    0.3738694242191594    0.8754151896907481 Se
   0.8824177925939959    0.1115593843016788    0.6170647404506385 Se
   0.1252067383139623    0.3692715375457292    0.1278775592323309 Se
   0.1164774976021746    0.1168152470972505    0.3829040616252652 Se
   0.8815001395676245    0.3820369091020564    0.8844173373851577 Se
   0.8670761942783569    0.1281906970656588    0.1330019672157044 Se
   0.6402380997284991    0.8613929855484004    0.6429160963206986 Se
   0.6289940089165604    0.1345625668665587    0.3663878286969829 Se
   0.8708023079098577    0.8585544877384489    0.8684785065018163 Se
   0.8744900039011565    0.6116387471747614    0.1221930868449498 Se
   0.1281890569821956    0.8849459088436950    0.6156673563455790 Se
   0.1172125081632370    0.6197504596924940    0.8800467357759020 Se
   0.8858586347029450    0.8754954860402846    0.3769063066606471 Se
   0.8670458690218321    0.6330609846896752    0.6329409061119743 Se
   0.6328556866861391    0.3669141303443761    0.1324831075393544 Se
   0.6296000304422756    0.6426522412604205    0.8628813478247603 Se
   0.8715447784889294    0.3537331390610678    0.3736738442012145 Se
