Mg7 Sc16 Se32
1.0
  11.1003847944368736    0.0000000000000000    0.0000000000000000
   0.0000000000000000   11.1003847944368736    0.0000000000000000
  -0.0000000000000000   -0.0000000000000000   11.1003847944368736
Mg Sc Se
7 16 32
direct
   0.5018186330191111    0.9955139678021024    0.4975700233492700 Mg
   0.2504109811721590    0.7518632374074379    0.7511455506659540 Mg
   0.5008454702584803    0.4996713819707471    0.0007901780723233 Mg
   0.7455214699503073    0.2511047473582744    0.7479246736050151 Mg
   0.9974463263849935    0.0016316738317805    0.9947400791252027 Mg
   0.7493789019034922    0.7495565850800839    0.2504113991900947 Mg
   0.9948972532578413    0.5006279103780680    0.4987975877145042 Mg
   0.1245341291876399    0.8753757865562515    0.3749373756089383 Sc
   0.3795732649335793    0.1242841744767769    0.8705354730784803 Sc
   0.3741792626105087    0.3732149879671885    0.6271044283538220 Sc
   0.1252732338216286    0.1260838559702556    0.6254182257825925 Sc
   0.1244659719408789    0.3735843457606037    0.8749857874457861 Sc
   0.3736030546950852    0.6269814391869404    0.3759631505169799 Sc
   0.3724256581968765    0.8768226434619770    0.1188188216678862 Sc
   0.1252706627264379    0.6249820520463951    0.1251359391785380 Sc
   0.6250349968897855    0.8738043772889188    0.8753631147044193 Sc
   0.8744955732861904    0.1246583062767870    0.3745934019572765 Sc
   0.8731189262457137    0.3760911649502244    0.1265794363618046 Sc
   0.6227694327414653    0.1251821828996948    0.1237964356125234 Sc
   0.6196383027697255    0.3745370593889030    0.3701508204234504 Sc
   0.8766774709016297    0.6261138661663888    0.8799441145089939 Sc
   0.8716719682924837    0.8695135226123786    0.6271618601255230 Sc
   0.6218755706031439    0.6255580181645451    0.6261087268738394 Sc
   0.3800075354681776    0.1137859831792583    0.1168351423997925 Se
   0.6147680816727497    0.3840584349286555    0.6159319573656127 Se
   0.6175357275856731    0.1194661644969959    0.8817476456406627 Se
   0.3811135297000601    0.3810928975647096    0.3822190721496616 Se
   0.3630262057523488    0.1287942501045266    0.6354645351209203 Se
   0.1328682708246979    0.8671093756553742    0.1328969822443157 Se
   0.1300380407421305    0.1321695187780659    0.8653766090532928 Se
   0.3676791180554353    0.8667560267442570    0.3692693312978754 Se
   0.3781896964634155    0.6127325276915011    0.6193960847662168 Se
   0.6210888210922074    0.8856561527000797    0.1212758830354829 Se
   0.6165645484385537    0.6200609403685355    0.3850577234280806 Se
   0.3851061380846474    0.8820824849220245    0.8841938346688872 Se
   0.3707087661312565    0.6304230164285314    0.1291721761217167 Se
   0.1301034193488416    0.3618968033791130    0.6350669162748903 Se
   0.1320030229727731    0.6357308157078043    0.3656553994890824 Se
   0.3671767893914041    0.3667474469056075    0.8675249221184173 Se
   0.8812140322005618    0.1189652432057349    0.6189980062119746 Se
   0.1196420494616490    0.3855991648138993    0.1160322530000173 Se
   0.1177294958363934    0.1158800082026429    0.3853121682926072 Se
   0.8818820115281500    0.3838550532839839    0.8809319762497068 Se
   0.8662065779355662    0.1313321215882933    0.1321851264169690 Se
   0.6351793103473273    0.8711274637244087    0.6346152896536857 Se
   0.6270186861585229    0.1320643870079946    0.3711986768827660 Se
   0.8668556339573515    0.8678809453282121    0.8656780517072077 Se
   0.8869213663157715    0.6185209215487150    0.1118281916885856 Se
   0.1223996347759424    0.8797010667432529    0.6138597976586839 Se
   0.1131478498473084    0.6184580386396642    0.8819033635323947 Se
   0.8818683683483287    0.8829667950739220    0.3752642064138700 Se
   0.8672529748651792    0.6327100461933106    0.6322677062658437 Se
   0.6309749547392443    0.3668623970339863    0.1321593414134555 Se
   0.6357365184394016    0.6339171798982784    0.8679236272797133 Se
   0.8639380191390605    0.3712867584530276    0.3685635565675683 Se
