Mg7 Sc16 Se32
1.0
  11.1003847944368736    0.0000000000000000    0.0000000000000000
   0.0000000000000000   11.1003847944368736    0.0000000000000000
  -0.0000000000000000   -0.0000000000000000   11.1003847944368736
Mg Sc Se
7 16 32
direct
   0.5013185166876382    0.9964585103314521    0.5040028327917503 Mg
   0.2599137827415030    0.7421945105594790    0.7509973387435381 Mg
   0.2445496495073739    0.2527541516770485    0.2500123474190461 Mg
   0.7504141770469596    0.2447668848200386    0.7503573254879302 Mg
   0.9977126829214120    0.0003586656560502    0.9989069590564148 Mg
   0.7494280341121256    0.7506146528615840    0.2503013904835183 Mg
   0.0039149979492521    0.5025873191897002    0.4888349986500450 Mg
   0.1211789489322138    0.8741783856130180    0.3717138848655883 Sc
   0.3726991746269153    0.1256991896972358    0.8776223855527508 Sc
   0.3751247878928762    0.3747479565727714    0.6255742486609033 Sc
   0.1310286317341067    0.1227958923879571    0.6368016422983884 Sc
   0.1224057476138219    0.3842403519182111    0.8747348727804654 Sc
   0.3743285878358253    0.6254420353014514    0.3727810537456155 Sc
   0.3765265209802776    0.8861640673419438    0.1246475138865195 Sc
   0.1249637383565405    0.6249502889771482    0.1251189492610757 Sc
   0.6218963002132774    0.8736774494397622    0.8798273284806297 Sc
   0.8703276071002143    0.1238249587840669    0.3752560869593622 Sc
   0.8700642616764206    0.3824582255569109    0.1209213307283639 Sc
   0.6287312289326440    0.1266870409161671    0.1274105798161985 Sc
   0.6267034081718390    0.3741322245239875    0.3864461302401143 Sc
   0.8664471467312135    0.6308469961313335    0.8745113197046642 Sc
   0.8756203115615853    0.8635776830756721    0.6260708842126531 Sc
   0.6298158213876242    0.6315042357364505    0.6225944540769294 Sc
   0.3823907480375492    0.1194793894015860    0.1184477329592486 Se
   0.6094835239494080    0.3798235710314007    0.6151845116785336 Se
   0.6075284894640609    0.1131986446799249    0.8879002693953664 Se
   0.3807883597600852    0.3838072729966630    0.3841396369306393 Se
   0.3713979183106333    0.1309248907071788    0.6300956518373537 Se
   0.1436502619992912    0.8656603536350206    0.1387944391185202 Se
   0.1346998723298600    0.1340288793061098    0.8675038632496478 Se
   0.3647495444965600    0.8705162235018178    0.3666666666267954 Se
   0.3784252805148487    0.6080326462017949    0.6163303013049124 Se
   0.6180597475778898    0.8806082854752469    0.1172722582512467 Se
   0.6222247594235752    0.6066390236889322    0.3803137385996194 Se
   0.3853385899740801    0.8836708550924116    0.8783512505265640 Se
   0.3738588030855169    0.6275500637356914    0.1302719854112753 Se
   0.1289420458835005    0.3754695424195078    0.6373919263489743 Se
   0.1217724701431266    0.6357158852030900    0.3678044527271877 Se
   0.3711447489122940    0.3665645119317685    0.8609430153304224 Se
   0.8741030564418198    0.1169431048201404    0.6108517181316724 Se
   0.1105244969359566    0.3893059061407487    0.1196438577672927 Se
   0.1174911261030700    0.1265223617199285    0.3843031368949201 Se
   0.8862294836405697    0.3913329792897561    0.8828305680104089 Se
   0.8772105999294638    0.1303122663027764    0.1377539979896076 Se
   0.6393555736757048    0.8669099525770478    0.6339872262129316 Se
   0.6395650961496906    0.1381308375657520    0.3667865997984212 Se
   0.8574908077361314    0.8622175009655131    0.8697182184253728 Se
   0.8824305794480989    0.6168863540646785    0.1170664629632572 Se
   0.1203619806295949    0.8806377370855335    0.6143171268152107 Se
   0.1136668069316471    0.6099508522579712    0.8898976735907871 Se
   0.8780926901283151    0.8850138755078762    0.3801338563630921 Se
   0.8673496169090904    0.6317003736532503    0.6279610679101187 Se
   0.6283978666072302    0.3734796751835611    0.1365228526126293 Se
   0.6375783521392748    0.6378438985908975    0.8653354590452055 Se
   0.8686043948402085    0.3675176903941793    0.3674687502430031 Se
