Mg7 Sc16 Se32
1.0
  11.1003847944368736    0.0000000000000000    0.0000000000000000
   0.0000000000000000   11.1003847944368736    0.0000000000000000
  -0.0000000000000000   -0.0000000000000000   11.1003847944368736
Mg Sc Se
7 16 32
direct
   0.5017856344076900    0.9996783677362832    0.5000643043972225 Mg
   0.2534246098666360    0.7500841942150093    0.7518625116110851 Mg
   0.5001536351143259    0.4991665261735864    0.9989823640792721 Mg
   0.7479192069074272    0.2493063372762001    0.7463288560761659 Mg
   0.0023534598087323    0.9964413963830285    0.9968069530122066 Mg
   0.7541785362228197    0.7499491707069068    0.2532412020530986 Mg
   0.2080965996387200    0.2582437446586450    0.2037856464934163 Mg
   0.1298171848727578    0.8743248263569644    0.3752639841101242 Sc
   0.3729390845465062    0.1214816653396863    0.8713753113565144 Sc
   0.3741976790103413    0.3742297847936993    0.6233242237801144 Sc
   0.1300068044176325    0.1283523544780822    0.6283142599913474 Sc
   0.1237206572296314    0.3785691069291177    0.8715296995338063 Sc
   0.3742918779473348    0.6253473372997731    0.3766918896432220 Sc
   0.3737270911393739    0.8760642425011443    0.1255020971859787 Sc
   0.1251419272085929    0.6277166334985951    0.1221420980280894 Sc
   0.6278398931504865    0.8756299806549755    0.8768655442850356 Sc
   0.8751231332575969    0.1248489678536294    0.3750987876905809 Sc
   0.8732447534589018    0.3755367842216171    0.1263333140286736 Sc
   0.6237183232787119    0.1218943129663414    0.1292673290728623 Sc
   0.6240034413786042    0.3738390815073456    0.3756204104996019 Sc
   0.8730839451232391    0.6296484376198599    0.8762745161071018 Sc
   0.8746513335094807    0.8750259982940095    0.6245739829229424 Sc
   0.6250520858230939    0.6248723617201434    0.6245036952831422 Sc
   0.3844224839026652    0.1164959595255188    0.1164161346275788 Se
   0.6162527359929827    0.3784175756278249    0.6209938430658013 Se
   0.6165727962449250    0.1168173699078662    0.8830136917966185 Se
   0.3839225291355127    0.3873241276383005    0.3766567553618361 Se
   0.3687369858671912    0.1329328729810424    0.6308150532898225 Se
   0.1340813572833999    0.8679978315456083    0.1343627447099009 Se
   0.1336746948214971    0.1346229133167073    0.8639713493306046 Se
   0.3635911035435683    0.8666256825345729    0.3717967562959177 Se
   0.3836304284346689    0.6155384967375769    0.6168619227457657 Se
   0.6160058170105188    0.8896351279212455    0.1195051638173308 Se
   0.6180598695403812    0.6190752774748352    0.3895108623368724 Se
   0.3867218730144358    0.8882619498175116    0.8868409167643094 Se
   0.3672341941000596    0.6330066873156226    0.1329726594122143 Se
   0.1353160043119557    0.3657147264603317    0.6285149231780887 Se
   0.1323572187208965    0.6308269653214825    0.3672429574214415 Se
   0.3671189672794604    0.3719291905368362    0.8627537207120689 Se
   0.8803910236632017    0.1104818196199650    0.6177546074807748 Se
   0.1179610015908910    0.3828135762976247    0.1173282288662044 Se
   0.1130726077052397    0.1212338426886992    0.3811750342714953 Se
   0.8820580705909334    0.3786912557332971    0.8832487764626783 Se
   0.8701454313183069    0.1306018823945282    0.1353681160966473 Se
   0.6327118438876282    0.8728348934781786    0.6304829603909343 Se
   0.6262882251452808    0.1323842772852096    0.3669903362532758 Se
   0.8646337420925126    0.8689721075030403    0.8676257158533214 Se
   0.8803587788143539    0.6174894676144842    0.1177799896129740 Se
   0.1188773867769543    0.8798533821727106    0.6112710097004300 Se
   0.1207423177538908    0.6156390150151244    0.8825667174460431 Se
   0.8824314299831495    0.8810492940268665    0.3897265082009148 Se
   0.8671857518188516    0.6317051352726125    0.6327283573542388 Se
   0.6330598129501037    0.3675271954254016    0.1331058375621236 Se
   0.6382108727472634    0.6318290784004527    0.8623670256922312 Se
   0.8676152365735628    0.3682515056203956    0.3668780320309336 Se
