Mg7 Sc16 Se32
1.0
  11.1003847944368736    0.0000000000000000    0.0000000000000000
   0.0000000000000000   11.1003847944368736    0.0000000000000000
  -0.0000000000000000   -0.0000000000000000   11.1003847944368736
Mg Sc Se
7 16 32
direct
   0.4978840228772475    0.0017353041009764    0.4915954871947092 Mg
   0.2486269498769846    0.7496395686775308    0.7489869671293278 Mg
   0.1493780780318043    0.2411567377980421    0.2222025449591924 Mg
   0.7452310907440109    0.2551325577733042    0.7464744777272462 Mg
   0.9980390786873655    0.9989689167363148    0.0049441439511443 Mg
   0.7498359839042917    0.7486961115119746    0.2504897668512145 Mg
   0.0006620488946645    0.4983610721354327    0.4978566880700332 Mg
   0.1246439304311682    0.8725506943420834    0.3772752488737309 Sc
   0.3701131471352930    0.1320995440277355    0.8724075264116689 Sc
   0.3791326077225490    0.3717044514943164    0.6234700472206079 Sc
   0.1227690431902297    0.1256625354478267    0.6229825197475490 Sc
   0.1219351960529135    0.3851309435163938    0.8739581221873289 Sc
   0.3784732526684542    0.6188812710553488    0.3822230718017922 Sc
   0.3745808806733923    0.8753077974728307    0.1278220445366115 Sc
   0.1277896536158966    0.6159419442004666    0.1237187051224859 Sc
   0.6251941657229552    0.8750230272982703    0.8750129059192135 Sc
   0.8711001499441832    0.1223660034556598    0.3792801579049530 Sc
   0.8770065811245876    0.3694363024528720    0.1248932989657265 Sc
   0.6243861922216742    0.1196550174514688    0.1262376153888831 Sc
   0.6256561103892847    0.3755619716690156    0.3738746124672304 Sc
   0.8748191120554886    0.6297248799537892    0.8762685049684145 Sc
   0.8780581323631977    0.8768741140219179    0.6176711751703738 Sc
   0.6293847308361706    0.6220183472493618    0.6265637652174050 Sc
   0.3817814232822591    0.1183364929893010    0.1158902510465923 Se
   0.6133280530923091    0.3802476217034657    0.6200177929130519 Se
   0.6172255096132967    0.1169825413903048    0.8828342265483531 Se
   0.3824354558521006    0.3821042285915398    0.3834413823704543 Se
   0.3710915050696887    0.1373989676607160    0.6343145608032588 Se
   0.1352928822663865    0.8667269723465155    0.1366190314570128 Se
   0.1324841828098734    0.1254756835827011    0.8620525016367825 Se
   0.3731164501848386    0.8730581022688997    0.3714195610842955 Se
   0.3819685878245352    0.6152181290660227    0.6163474316140529 Se
   0.6178956051268366    0.8858928604717997    0.1216746456468444 Se
   0.6189634285789448    0.6161813513658331    0.3801971397578194 Se
   0.3801164022905156    0.8835708160842315    0.8826152011689108 Se
   0.3688986647712644    0.6333383724131210    0.1341455867641994 Se
   0.1363829474453191    0.3685480406302586    0.6333794567068491 Se
   0.1264262187398986    0.6343151521054939    0.3748811967526947 Se
   0.3699976994336678    0.3652041324555798    0.8651447367108720 Se
   0.8837939690991061    0.1190595318793208    0.6193297873073069 Se
   0.1163419717157342    0.3811504322810699    0.1176594968266060 Se
   0.1127215420165482    0.1140983888757435    0.3882907745136578 Se
   0.8833373568432921    0.3822204094969007    0.8815593223844009 Se
   0.8669444924917451    0.1330882767969686    0.1329919859795626 Se
   0.6330342849401771    0.8674254507986792    0.6325048933032830 Se
   0.6320216479220958    0.1333460937083784    0.3666331543980882 Se
   0.8647594087079467    0.8649575405051317    0.8663260430938211 Se
   0.8868952705547128    0.6230552613165988    0.1193112258261520 Se
   0.1104712129446936    0.8816870948627253    0.6154888368590429 Se
   0.1182717415117292    0.6179109504731428    0.8836118370771254 Se
   0.8780146244288425    0.8832372338361211    0.3781536521346253 Se
   0.8665711708615608    0.6252753170405494    0.6304548895395747 Se
   0.6326390892106200    0.3635835887834531    0.1335618245494566 Se
   0.6276494764000093    0.6342383828564997    0.8642499986059159 Se
   0.8661083938055741    0.3704430773237471    0.3667663062886318 Se
