Mg7 Sc16 Se32
1.0
  11.1003847944368736    0.0000000000000000    0.0000000000000000
   0.0000000000000000   11.1003847944368736    0.0000000000000000
  -0.0000000000000000   -0.0000000000000000   11.1003847944368736
Mg Sc Se
7 16 32
direct
   0.5000132450843079    0.9953381262735286    0.4979802723458235 Mg
   0.2520617476274550    0.7544926943005135    0.7494741922138575 Mg
   0.4992171586763171    0.4999078998715059    0.0017649607270027 Mg
   0.7520319972120193    0.2530177511311101    0.7436747177086296 Mg
   0.0017268597793602    0.9996606071555123    0.0014330806332421 Mg
   0.7513009380232877    0.7443664270938790    0.2444439356738291 Mg
   0.0006805763254037    0.5019435163255294    0.4928204168562673 Mg
   0.1254472878103269    0.8758700659255420    0.3750892901861911 Sc
   0.3818550167543846    0.1276211287064143    0.8805915881407104 Sc
   0.3726468286829774    0.3674697360025806    0.6297573467688996 Sc
   0.1185181923696079    0.1185032806845482    0.6229877730166981 Sc
   0.1299760477561426    0.3746920912044123    0.8791341382226340 Sc
   0.3711519005203651    0.6263675065474259    0.3657904036311392 Sc
   0.3762666715874864    0.8747374350744772    0.1208711481969626 Sc
   0.1325324837993827    0.6279444069425819    0.1244226705391249 Sc
   0.6226055040919705    0.8841146244897773    0.8735388431839247 Sc
   0.8770279104477992    0.1205254190017149    0.3695352049329468 Sc
   0.8755543231017695    0.3750837446212492    0.1239509664351041 Sc
   0.6184041777496787    0.1290335797970028    0.1319038351703237 Sc
   0.6252397278711109    0.3733149276512914    0.3687162060888534 Sc
   0.8786757006635317    0.6235378903053740    0.8712712722561553 Sc
   0.8719919578604801    0.8643460054049498    0.6243234129212385 Sc
   0.6193355093868297    0.6165288327559928    0.6187685348857238 Sc
   0.3752592997468667    0.1125927537478843    0.1149938862475838 Se
   0.6176256622469941    0.3933627717229049    0.6188081326662722 Se
   0.6184424145547569    0.1188009494034805    0.8801563228867744 Se
   0.3834868400869437    0.3903389700286742    0.3849109928384387 Se
   0.3677023475048352    0.1325690578827018    0.6291899635993382 Se
   0.1238185405741796    0.8669000022144551    0.1307023158486684 Se
   0.1202035825814882    0.1288512443173571    0.8707262694594562 Se
   0.3618481858874679    0.8623165067424496    0.3589576140590344 Se
   0.3752597375857082    0.6110975024976905    0.6218507687156497 Se
   0.6144131739948884    0.8832648478762545    0.1190110563552978 Se
   0.6235648078993650    0.6139432362346938    0.3827400743166609 Se
   0.3712527154787385    0.8818263201334366    0.8868009416602751 Se
   0.3699411122121817    0.6385855916109227    0.1332799457179252 Se
   0.1332566687731529    0.3657041428511977    0.6342142415082431 Se
   0.1353558964574852    0.6341206577714571    0.3620710187149754 Se
   0.3733450891745985    0.3652904130131345    0.8711937812339228 Se
   0.8827403865953484    0.1173534758264336    0.6165501287239326 Se
   0.1190264842466071    0.3834147378331605    0.1304521252047246 Se
   0.1073434216958888    0.1108054423532760    0.3810169239870426 Se
   0.8765391338758837    0.3801045274354738    0.8832672212498389 Se
   0.8670285301540515    0.1298991525864563    0.1313330827238887 Se
   0.6265576518660085    0.8686114727721257    0.6323612310125719 Se
   0.6300544904760557    0.1324217158170932    0.3728345252848653 Se
   0.8645174312026522    0.8670974506658330    0.8666175218057313 Se
   0.8778324982760090    0.6146494573163644    0.1098391797070367 Se
   0.1198571523316217    0.8840875356395580    0.6199082888508805 Se
   0.1187770596168417    0.6174838950551972    0.8728347013162390 Se
   0.8760514572811383    0.8819670213192630    0.3708387217230273 Se
   0.8675424616792052    0.6305933340452567    0.6265524414860383 Se
   0.6320116529710229    0.3668872268317933    0.1322768545967136 Se
   0.6285352629602470    0.6305576562585022    0.8698946770323051 Se
   0.8717286394291862    0.3755547480042417    0.3710598078947722 Se
