Mg7 Sc16 Se32
1.0
  11.1003847944368736    0.0000000000000000    0.0000000000000000
   0.0000000000000000   11.1003847944368736    0.0000000000000000
  -0.0000000000000000   -0.0000000000000000   11.1003847944368736
Mg Sc Se
7 16 32
direct
   0.1675931311035482    0.2927781919641799    0.2003866882388468 Mg
   0.2392967952756933    0.7574501025150178    0.7340065466052954 Mg
   0.4920223060345760    0.4941901919651852    0.9940996629201442 Mg
   0.7509393089477542    0.2520730789839661    0.7552939187852490 Mg
   0.9976447535252349    0.9873019286831419    0.9800302634213324 Mg
   0.7317177666315753    0.7608135087541399    0.2508420362556344 Mg
   0.0107768574925282    0.4882500828158557    0.4906412810358374 Mg
   0.1249277697294903    0.8746791224596296    0.3751379722599594 Sc
   0.3780533206799754    0.1078464742962074    0.8765784556134417 Sc
   0.3704919095558576    0.3779443302703445    0.6051608705569961 Sc
   0.1348050627691834    0.1370071852896099    0.6222321069587784 Sc
   0.1237565508772215    0.3749170922370279    0.8738608246828199 Sc
   0.3730881963208073    0.6332649642832520    0.3827807045860832 Sc
   0.3802619693431422    0.8680012708518379    0.1131559756971823 Sc
   0.1303461782525298    0.6286194765864248    0.1207176925454253 Sc
   0.6409870848200547    0.8674784155192542    0.8793519226364411 Sc
   0.8634968930220542    0.1078621295075343    0.3810346130517719 Sc
   0.8766782415139696    0.3746456208356364    0.1324720317861966 Sc
   0.6049166327250445    0.1417647967694805    0.1228662935098629 Sc
   0.6279865482944463    0.3813093865777414    0.3856379429460442 Sc
   0.8802301581676648    0.6284804544477748    0.8728803677547936 Sc
   0.8753194115266116    0.8745956585554266    0.6235199405985964 Sc
   0.6374458109289540    0.6274919309097662    0.6016601241933592 Sc
   0.3789189553610995    0.1213772921274113    0.1207198678317956 Se
   0.6180542788644342    0.3876733085362117    0.6172723243830192 Se
   0.5970989049089233    0.1077507693980807    0.8946657183403298 Se
   0.3796860359488166    0.3825087501231655    0.3803320439930027 Se
   0.3665582002758357    0.1317853641001007    0.6329117116342369 Se
   0.1333993507352270    0.8544310797316393    0.1330807481827765 Se
   0.1294156712554773    0.1339915178679290    0.8710753147513363 Se
   0.3774095968272871    0.8446460060090605    0.3722247793267613 Se
   0.3801706108322233    0.6162834044135291    0.6181008238751474 Se
   0.6315206175101474    0.8682615317747562    0.1294955776698087 Se
   0.6141673075244752    0.6145738463126952    0.3795765298853029 Se
   0.3846326114886220    0.8815438236975748    0.8844184886249450 Se
   0.3719302235483390    0.6330281226229034    0.1397039819970846 Se
   0.1433182191794634    0.3564293463349557    0.6303048089746350 Se
   0.1349724557261263    0.6348043678361237    0.3595089995604450 Se
   0.3585223036704594    0.3573507061677598    0.8678278521631090 Se
   0.8730917153157314    0.1333163046257493    0.6232573824390610 Se
   0.1182206366074155    0.3820905558508665    0.1169112003716761 Se
   0.1024517146288900    0.1251638856808001    0.3759620317772228 Se
   0.9028640610400680    0.3944055436372838    0.8966277408177078 Se
   0.8628009727421835    0.1319294005424774    0.1330059675376010 Se
   0.6330744409759465    0.8686866278251298    0.6295315366162907 Se
   0.6213248598387544    0.1300558955295814    0.3682987233351506 Se
   0.8631298246354064    0.8826101958618000    0.8523471541765686 Se
   0.8762626789302947    0.6260575515551114    0.1067132477167598 Se
   0.1183485297415740    0.8781280487596166    0.5939746980463569 Se
   0.1336108833805297    0.6257869847272859    0.8809350985573877 Se
   0.8894113103977029    0.8894522083425659    0.3714846497023361 Se
   0.8587196876407928    0.6207190865241226    0.6471735355981927 Se
   0.6512978922124273    0.3768989158810124    0.1490638824733716 Se
   0.6392461626811476    0.6180764768238525    0.8715718077703061 Se
   0.8716775019947168    0.3581462445056131    0.3581501594295307 Se
