Mg7 Sc16 Se32
1.0
  11.1003847944368736    0.0000000000000000    0.0000000000000000
   0.0000000000000000   11.1003847944368736    0.0000000000000000
  -0.0000000000000000   -0.0000000000000000   11.1003847944368736
Mg Sc Se
7 16 32
direct
   0.4985376703638225    0.9996263301124126    0.4997659359002568 Mg
   0.2448627461240354    0.7514761957477559    0.7542293618500980 Mg
   0.5016428067055542    0.4979335983166086    0.0013949877247943 Mg
   0.7487442780365879    0.2553874300604725    0.7508186390475771 Mg
   0.0002758420868935    0.0011096351302316    0.9999114491605666 Mg
   0.7511001142099775    0.7504074333988763    0.2496744870374194 Mg
   0.2327596836232762    0.2390350083803107    0.1945787808984012 Mg
   0.1246867625910047    0.8753187062607674    0.3740413564934842 Sc
   0.3717737750963934    0.1236492674859154    0.8759957755201794 Sc
   0.3760190460627469    0.3727598302316558    0.6266634357962446 Sc
   0.1225028927573488    0.1240393614366958    0.6255610389592520 Sc
   0.1249697496239965    0.3748201416810599    0.8751509223361285 Sc
   0.3767167502698143    0.6241143668516834    0.3746517676221758 Sc
   0.3752109027314943    0.8754140759368868    0.1245614483367172 Sc
   0.1247076640477641    0.6255199060046077    0.1230937774207232 Sc
   0.6215856634521302    0.8707547927694429    0.8730753534816204 Sc
   0.8745148588178769    0.1251788221845395    0.3752144306953952 Sc
   0.8759472979534304    0.3685216611367639    0.1249329800692821 Sc
   0.6240344589051986    0.1185264631339556    0.1267272352420973 Sc
   0.6243801449642069    0.3801994045548523    0.3804689844748914 Sc
   0.8705696947001718    0.6281290570765314    0.8741538155263607 Sc
   0.8748919432999449    0.8760265830210969    0.6265136185372144 Sc
   0.6269059039656809    0.6229835410934451    0.6182598771785962 Sc
   0.3849062657676688    0.1133213003903443    0.1157674140128299 Se
   0.6156660353645936    0.3825260531077340    0.6111676586751864 Se
   0.6134169950850747    0.1178901676053287    0.8861474847623602 Se
   0.3801740295382081    0.3824884420132448    0.3829556463343466 Se
   0.3694561590688929    0.1363030376325129    0.6346107749984816 Se
   0.1323385373331976    0.8668760006440767    0.1326667070930067 Se
   0.1317381092805880    0.1316874319476883    0.8660597307411450 Se
   0.3620356546469376    0.8657888762741286    0.3654982327466467 Se
   0.3822242087684367    0.6158816846515452    0.6171012857997266 Se
   0.6191823102820493    0.8814203892594221    0.1168508572243296 Se
   0.6204188034358209    0.6140014934319039    0.3863321724031594 Se
   0.3871405096433022    0.8858494506547224    0.8789720831420240 Se
   0.3681539899841384    0.6332940293352830    0.1348021841174313 Se
   0.1279825416325269    0.3686157018781483    0.6351500556491676 Se
   0.1334472365732276    0.6349251042653480    0.3673421179258939 Se
   0.3671092274828215    0.3669131317478231    0.8673549699664135 Se
   0.8788685786261841    0.1207882536282796    0.6143611275729123 Se
   0.1238330495776671    0.3814817480386563    0.1182803877510434 Se
   0.1180514746185370    0.1111263891276798    0.3817581394340426 Se
   0.8836352244686186    0.3815343501248794    0.8802698725695590 Se
   0.8639187250976006    0.1330740427239254    0.1344874207391606 Se
   0.6322776792052491    0.8657039569825883    0.6330662780068612 Se
   0.6332905949952253    0.1331480693993553    0.3678612460948973 Se
   0.8671363630994569    0.8671719091820967    0.8670534865484714 Se
   0.8824408343782767    0.6143651561059221    0.1163047382308115 Se
   0.1153897928553510    0.8821006856870355    0.6173292998621027 Se
   0.1170222564336537    0.6169099345621628    0.8827679872483913 Se
   0.8836538399505665    0.8820621657016007    0.3809388724257827 Se
   0.8678608755382831    0.6327680881382099    0.6326756546491702 Se
   0.6321547534076993    0.3675485772160744    0.1335575592425905 Se
   0.6310297075601780    0.6322726408558418    0.8676283814459820 Se
   0.8666164428085418    0.3655809251740592    0.3670459436625538 Se
