Mg7 Sc16 Se32
1.0
  11.1003847944368736    0.0000000000000000    0.0000000000000000
   0.0000000000000000   11.1003847944368736    0.0000000000000000
  -0.0000000000000000   -0.0000000000000000   11.1003847944368736
Mg Sc Se
7 16 32
direct
   0.5014259338760209    0.9956660560172379    0.4996464167836863 Mg
   0.2494687134796903    0.7458026720508053    0.7485970838485830 Mg
   0.4966056018374057    0.4968569945889066    0.0014640384620505 Mg
   0.7533226304041478    0.2512165287759199    0.7514013274898672 Mg
   0.9984529197792580    0.0001439415379377    0.9955398743124626 Mg
   0.7508349812166205    0.7509983241091652    0.2439898917706064 Mg
   0.0691168982402817    0.4168013503053292    0.3855057961850383 Mg
   0.1228992423046027    0.8736232261620898    0.3758732854233424 Sc
   0.3768797264976219    0.1225364045697335    0.8741837508432853 Sc
   0.3770755338177910    0.3764515915063029    0.6252828202057037 Sc
   0.1253893432637911    0.1240906777066024    0.6252181575495459 Sc
   0.1249502801791430    0.3796000695880586    0.8729939602493668 Sc
   0.3752584877827601    0.6245469081048842    0.3731690831529364 Sc
   0.3731629151064921    0.8770279834409966    0.1256777822873779 Sc
   0.1213464051793980    0.6219417093340812    0.1289143847263316 Sc
   0.6205693721857869    0.8728487447464026    0.8728881884021885 Sc
   0.8785556493830670    0.1184828807197637    0.3761419426225570 Sc
   0.8729431663728414    0.3751710546766279    0.1237656247753806 Sc
   0.6253768109265148    0.1250167122231337    0.1248604825371896 Sc
   0.6234574933486464    0.3769491419483055    0.3765157502930637 Sc
   0.8749426422225375    0.6247573726966480    0.8750660326215701 Sc
   0.8823912145124376    0.8756492874878028    0.6245767303786488 Sc
   0.6243482858403574    0.6250511423742625    0.6259594498342100 Sc
   0.3830064512079248    0.1186454783386266    0.1182004706001345 Se
   0.6146422160721743    0.3773368703555708    0.6172158394222800 Se
   0.6172900045509513    0.1174136658528357    0.8828288540384153 Se
   0.3817152959030606    0.3835270793524518    0.3832236666141194 Se
   0.3710328642496831    0.1321385578436157    0.6283152525868508 Se
   0.1307126951566278    0.8643910668531850    0.1329100808172216 Se
   0.1317822417110645    0.1322897629987916    0.8678803086616161 Se
   0.3689168629293124    0.8632348517148911    0.3649259765268743 Se
   0.3810392603299040    0.6122005641019552    0.6146741561431658 Se
   0.6130512449726394    0.8827957123423551    0.1175048596622472 Se
   0.6168811213365142    0.6166175302589996    0.3815553939624062 Se
   0.3803354462180047    0.8883860304944603    0.8850262011971675 Se
   0.3693292093241575    0.6353433196972704    0.1309927000445550 Se
   0.1377816113509976    0.3680952420798366    0.6310886774526144 Se
   0.1331301171676519    0.6323599524221121    0.3668333071376536 Se
   0.3672785422338474    0.3669011993745949    0.8669883234434099 Se
   0.8821910377784353    0.1144480846864315    0.6187999561950712 Se
   0.1173194293783961    0.3832742852512341    0.1178826899428804 Se
   0.1181279870436782    0.1214896946583866    0.3874045499360357 Se
   0.8829249803738851    0.3828837459111926    0.8830723350406493 Se
   0.8673556985399359    0.1333374964861177    0.1325132873153159 Se
   0.6316509761279019    0.8700684870580471    0.6295838938683989 Se
   0.6310314353611550    0.1326954210085713    0.3678789640691702 Se
   0.8675749744877612    0.8707071921196607    0.8654819117145864 Se
   0.8829974664764816    0.6176622295874499    0.1167867075815430 Se
   0.1167043783804283    0.8836655399771739    0.6200642989852195 Se
   0.1105133131099471    0.6136183949778578    0.8831348527303612 Se
   0.8842112200906856    0.8799312092601373    0.3781944498475825 Se
   0.8657844644223860    0.6326418733131028    0.6333119996493535 Se
   0.6327177398998777    0.3655246306598902    0.1312909622890594 Se
   0.6316119456606254    0.6336156928009459    0.8627754783135005 Se
   0.8637190773318540    0.3685118201332601    0.3677901902310559 Se
