Mg7 Sc16 Se32
1.0
  11.1003847944368736    0.0000000000000000    0.0000000000000000
   0.0000000000000000   11.1003847944368736    0.0000000000000000
  -0.0000000000000000   -0.0000000000000000   11.1003847944368736
Mg Sc Se
7 16 32
direct
   0.2523041626825436    0.1941568856912315    0.3074970784771252 Mg
   0.2575944872576704    0.7454584060818276    0.7478617009487127 Mg
   0.5097326165891485    0.5142768248662317    0.0002449249509895 Mg
   0.7533264316174999    0.2415131511769288    0.7589010538813750 Mg
   0.9899833048728869    0.0073031310392453    0.9975232675989552 Mg
   0.7524338436917499    0.7543924552404420    0.2446404534349820 Mg
   0.9923267787916011    0.4945758262618528    0.5093185054472547 Mg
   0.1325673531673436    0.8733565789305361    0.3598688961017136 Sc
   0.3756218869610510    0.1232989747238628    0.8759004991144793 Sc
   0.3710251556364193    0.3758514579863527    0.6340587640062620 Sc
   0.1055420409446166    0.1252866724333180    0.6145890505079012 Sc
   0.1161411013806512    0.3940798776720874    0.8690459550000906 Sc
   0.3827597141161744    0.6402315298191957    0.3754803903070880 Sc
   0.3735191897239130    0.8753919812697778    0.1208195406241255 Sc
   0.1253072158930101    0.6248885671024189    0.1250080323711564 Sc
   0.6287181885071798    0.8828427262370362    0.8724906854588300 Sc
   0.8860714663986273    0.1270660722209149    0.3758264493681536 Sc
   0.8705778167706923    0.3967705089340144    0.1283638667839933 Sc
   0.6222389513086218    0.1193814761580304    0.1302140415797264 Sc
   0.6353723466996197    0.3871345202748093    0.3635237961404837 Sc
   0.8854140794399021    0.6336651836590171    0.8729508436316231 Sc
   0.8706107958517756    0.8795472092600256    0.6304194397695275 Sc
   0.6182429586067224    0.6274836020283234    0.6456968185479071 Sc
   0.3977564264093031    0.1115427173641490    0.1188194892987259 Se
   0.6164343891376985    0.3715418017349533    0.6083969197132283 Se
   0.6067957490661618    0.1058129033415469    0.8903299190821194 Se
   0.3781755042434168    0.3847162221886191    0.3813161204681501 Se
   0.3658668377878709    0.1466223937040006    0.6197299646827025 Se
   0.1420555443764160    0.8522668210356806    0.1375938804619708 Se
   0.1317530954289909    0.1318504377443559    0.8670229510909397 Se
   0.3841782830441496    0.8716885786544756    0.3654613695127126 Se
   0.3937322454640428    0.6169286564994796    0.6292963146020827 Se
   0.6039637422012180    0.8784701312049752    0.1113418571487288 Se
   0.6212137062888101    0.6065013790618460    0.3811645012814001 Se
   0.3881924892953452    0.9031645101078699    0.8749616983113863 Se
   0.3768211528579304    0.6297257572742825    0.1174320168377019 Se
   0.1347243019317879    0.3506390590376806    0.6393503619301055 Se
   0.1317028090937195    0.6313358078077353    0.3661629634936854 Se
   0.3541434014157783    0.3657506152179233    0.8815618625610534 Se
   0.8824900499097341    0.1172720948191679    0.6173483067423439 Se
   0.1248516201189072    0.3763899693555822    0.1232081390962119 Se
   0.1306093080928820    0.1138598158468484    0.3728355783820009 Se
   0.8968553755540088    0.3805672706082845    0.8944442370445261 Se
   0.8610297715888767    0.1152050762983456    0.1322991331360306 Se
   0.6331659411734284    0.8712959801729261    0.6219152503559882 Se
   0.6307425582050711    0.1424750863060580    0.3739450585938075 Se
   0.8782204085044758    0.8655983241735928    0.8875320081298348 Se
   0.8842470199290013    0.6133622147367891    0.1149846394347077 Se
   0.1043542628985126    0.8882570734133329    0.6363178129976020 Se
   0.1180930044415434    0.6164619916864219    0.8810197917289095 Se
   0.8721173455782180    0.8859808573679715    0.3962424704897776 Se
   0.8671291212520186    0.6329152169283335    0.6328585374107408 Se
   0.6273462867562356    0.3706185798687958    0.1202175749526653 Se
   0.6421216061679506    0.6212978277049008    0.8566756656609297 Se
   0.8641262593420932    0.3524261427891452    0.3588333829729606 Se
