Mg7 Sc16 Se32
1.0
  11.1003847944368736    0.0000000000000000    0.0000000000000000
   0.0000000000000000   11.1003847944368736    0.0000000000000000
  -0.0000000000000000   -0.0000000000000000   11.1003847944368736
Mg Sc Se
7 16 32
direct
   0.5041547516345506    0.9844617032913228    0.5035012067994069 Mg
   0.2601481379248927    0.7615482060581664    0.7430222683510107 Mg
   0.4297754637663228    0.4195279778010739    0.0715207032062452 Mg
   0.7396448022082045    0.2718750279685679    0.7571930637427803 Mg
   0.0016379378008769    0.9970490782269554    0.0006998573041740 Mg
   0.7495129032418792    0.7547394651109828    0.2540880585918035 Mg
   0.9806621735805803    0.5159081073702718    0.4968801738426135 Mg
   0.1229772619517163    0.8778273319828274    0.3752083972398815 Sc
   0.3811941491294642    0.1214098838070153    0.8654842132326797 Sc
   0.3824453652642308    0.3517168479455327    0.6278182991580671 Sc
   0.1238856248757135    0.1271722616708585    0.6215731307427922 Sc
   0.1221510694983209    0.3767599102087233    0.8762872103684883 Sc
   0.3773757832878948    0.6183424863152857    0.3688516337582182 Sc
   0.3716426253168473    0.8818709074706186    0.1368473207938355 Sc
   0.1106494482814732    0.6141508265838074    0.1288737584065538 Sc
   0.6236785134704984    0.8766905004191160    0.8821940257817056 Sc
   0.8660025406678198    0.1414558763312943    0.3808976965011362 Sc
   0.8801700336769244    0.3531433230020331    0.1174433614227947 Sc
   0.6204312384020850    0.1104964522065899    0.1256129955124007 Sc
   0.6279285747379384    0.3790436005716268    0.3822586073196658 Sc
   0.8711668120537069    0.6370084433205129    0.8733263499523086 Sc
   0.8750826152219912    0.8749699016004359    0.6249651540093524 Sc
   0.6251625016041693    0.6240285641844884    0.6247027483557116 Sc
   0.3777807722513241    0.1195381812290638    0.1159531998197022 Se
   0.6240817874634048    0.3758397988193141    0.6108069876016079 Se
   0.6314944040854125    0.1103251709735589    0.8918185783026968 Se
   0.3640848121746442    0.3875883077530055    0.3650379579151564 Se
   0.3860946281802264    0.1246580784365052    0.6461336818309726 Se
   0.1358416502838847    0.8756592083306494    0.1502179272875534 Se
   0.1188631746508616    0.1380731988175992    0.8543789327069556 Se
   0.3666183565603405    0.8615347661338576    0.3651860260537672 Se
   0.3712747863056070    0.6237552086353162    0.6290748535002981 Se
   0.6090021039201536    0.8620647989412303    0.1295447824890239 Se
   0.6138917741409153    0.6163321834038518    0.3730190905544808 Se
   0.3836777460945878    0.8824066698688958    0.8821255457845750 Se
   0.3639660539514344    0.6315433742260479    0.1311795814850411 Se
   0.1225037444551282    0.3639764414473722    0.6319705843386261 Se
   0.1202866728304095    0.6522060481531279    0.3695039838870401 Se
   0.3607649704267352    0.3591463903799452    0.8743149768673164 Se
   0.9022949053394312    0.1120309443490904    0.6118094315690371 Se
   0.1255867503778723    0.3848558842121426    0.1221785371083976 Se
   0.1127607622210602    0.1147035849872135    0.3786266272859022 Se
   0.8849458898772185    0.3757525732021653    0.8862469818517066 Se
   0.8663358500686239    0.1192193386262253    0.1323126665846992 Se
   0.6238245623573447    0.8695159039421599    0.6359010928434052 Se
   0.6314865143445516    0.1202149150052191    0.3677576724369429 Se
   0.8719556873741463    0.8707874835829426    0.8553572998209954 Se
   0.8890424653557785    0.6183505605435863    0.1144761492170917 Se
   0.1118704781072008    0.8808449487046428    0.6152326511382638 Se
   0.1187130799881438    0.6183848794693652    0.8864365414299231 Se
   0.8841233713188900    0.8832933037351854    0.3827440306913363 Se
   0.8598279994390056    0.6186057572952939    0.6183245093082819 Se
   0.6342874193208792    0.3685198032364509    0.1317809459818994 Se
   0.6328851979207626    0.6324030602402392    0.8629002385615345 Se
   0.8676313900376894    0.3823317776157518    0.3659803023527556 Se
