Mg7 Sc16 Se32
1.0
  11.1003847944368736    0.0000000000000000    0.0000000000000000
   0.0000000000000000   11.1003847944368736    0.0000000000000000
  -0.0000000000000000   -0.0000000000000000   11.1003847944368736
Mg Sc Se
7 16 32
direct
   0.4630780516680780    0.0393332976591956    0.4692100332387146 Mg
   0.2483702353158457    0.7515629756896727    0.7525095493749462 Mg
   0.4986847036828773    0.4998821388545792    0.9995408613701023 Mg
   0.7492498439578331    0.2513517525774904    0.7501467146702384 Mg
   0.0000057386558739    0.0000002273342803    0.9999925172763215 Mg
   0.7498570348752874    0.7501340172309841    0.2504037827773306 Mg
   0.9999185068540509    0.4999790601852151    0.4998707327895816 Mg
   0.1229607447475272    0.8767677961349168    0.3755569719724355 Sc
   0.3759676267754582    0.1239179016293642    0.8730437621410250 Sc
   0.3742728469930519    0.3763295640342449    0.6237305952901105 Sc
   0.1238743043169575    0.1247572063756144    0.6277734925887071 Sc
   0.1267434819030656    0.3739983974186530    0.8755846094212431 Sc
   0.3749099854118463    0.6241215582610232    0.3756049164711208 Sc
   0.3720002235718974    0.8778991994250082    0.1262479375631543 Sc
   0.1248372249562457    0.6251268007880643    0.1250849327671056 Sc
   0.6249945442296287    0.8749970064091251    0.8750032471582109 Sc
   0.8733081588619750    0.1281458908379286    0.3725724364974080 Sc
   0.8751698385233422    0.3752784518076058    0.1246415090374245 Sc
   0.6235632955898474    0.1228536050670159    0.1226771133372952 Sc
   0.6233095275677771    0.3753556662178775    0.3725900583009356 Sc
   0.8749010670368909    0.6247666920892834    0.8757555598306890 Sc
   0.8750685984289049    0.8750225663985749    0.6249862921599811 Sc
   0.6252341725692320    0.6251026660742833    0.6248475070509883 Sc
   0.3831246642256202    0.1171907092260120    0.1172913307453906 Se
   0.6175230560911430    0.3823807329605369    0.6139973840136081 Se
   0.6179497339877574    0.1196617918712764    0.8825711250688668 Se
   0.3830420214630577    0.3827485799549364    0.3827730860179669 Se
   0.3663593013441683    0.1327537286430721    0.6311951112602940 Se
   0.1323449336789045    0.8658164311465718    0.1320634022926547 Se
   0.1336839635756357    0.1330654474784345    0.8668051939628558 Se
   0.3675159610333151    0.8651638310168039    0.3635100215094190 Se
   0.3833403169233919    0.6153191473548449    0.6166311877076239 Se
   0.6184603530513031    0.8813033654372330    0.1209133616082386 Se
   0.6174167897123178    0.6166069673989872    0.3857607551355888 Se
   0.3833500712865571    0.8824459882829947    0.8826176367354198 Se
   0.3682427187114269    0.6286320130217351    0.1325888174402361 Se
   0.1343309341162851    0.3682222116479229    0.6333034906144690 Se
   0.1327319785947152    0.6322715649125884    0.3641862330981688 Se
   0.3636089862274103    0.3657612265814947    0.8660180738584589 Se
   0.8810436130485289    0.1164857971258295    0.6144485487317584 Se
   0.1189589820433061    0.3802147584568475    0.1150813630676257 Se
   0.1170018624871092    0.1173020836152705    0.3827908365167052 Se
   0.8815490326675303    0.3831622483662661    0.8821186414873594 Se
   0.8683920320122199    0.1325066759632802    0.1320707222764658 Se
   0.6328734110982427    0.8669423060872717    0.6330000678486996 Se
   0.6327865762091878    0.1343132895043813    0.3674011347770952 Se
   0.8671787140128175    0.8671924097517016    0.8672210918775486 Se
   0.8854131076737328    0.6161417618940948    0.1157713794407714 Se
   0.1148289779181615    0.8808420371560225    0.6167200630555184 Se
   0.1139113268991253    0.6190593866688584    0.8840655010934053 Se
   0.8849485157888198    0.8833143631475430    0.3816916047952734 Se
   0.8668139090574031    0.6357895886166082    0.6333334917076586 Se
   0.6326008574130566    0.3669598337247928    0.1328672612589918 Se
   0.6297324932113482    0.6317574950203886    0.8646530779925657 Se
   0.8679993577356836    0.3650635588958314    0.3673417999977143 Se
