Mg7 Sc16 Se32
1.0
  11.1003847944368736    0.0000000000000000    0.0000000000000000
   0.0000000000000000   11.1003847944368736    0.0000000000000000
  -0.0000000000000000   -0.0000000000000000   11.1003847944368736
Mg Sc Se
7 16 32
direct
   0.4959773820421361    0.9935327210216781    0.5002397240373431 Mg
   0.2471352557695253    0.7496313171713871    0.7507052805033505 Mg
   0.5090432073590602    0.5015282350040889    0.9999225011028928 Mg
   0.7515044554314897    0.2453339701328569    0.7507729383334892 Mg
   0.0031212111683032    0.9919272568561046    0.9996475760609551 Mg
   0.7508235476410892    0.7499871905107803    0.2520610354959038 Mg
   0.2162954434961947    0.2917060665192580    0.2836120302456219 Mg
   0.1280598806910894    0.8728925423994568    0.3778673878139275 Sc
   0.3757451716231739    0.1229695730903483    0.8822999532843618 Sc
   0.3814839092445746    0.3743621861780149    0.6213787182570728 Sc
   0.1261056092663362    0.1255142498806477    0.6243145047534283 Sc
   0.1249715986769199    0.3730035858801544    0.8771530490882550 Sc
   0.3773381452968834    0.6243880190576443    0.3774323744509697 Sc
   0.3711505913306683    0.8773638583296350    0.1268545310113396 Sc
   0.1247422958751000    0.6182289970592895    0.1274052362060615 Sc
   0.6295479229971618    0.8754081020643963    0.8682256148305753 Sc
   0.8834267637347019    0.1253983825690545    0.3763671090075708 Sc
   0.8819486563239420    0.3762133785380884    0.1267963553635256 Sc
   0.6253039880934597    0.1258573388524289    0.1245517575597817 Sc
   0.6251413523962329    0.3748834968409782    0.3751158623131992 Sc
   0.8750694682506752    0.6279918174252413    0.8767334105833280 Sc
   0.8753465529783129    0.8743728986215445    0.6255696639538401 Sc
   0.6314870012623239    0.6279075091036119    0.6322615095466233 Sc
   0.3873136273586500    0.1170601605636643    0.1116405891628930 Se
   0.6191949293811012    0.3910763487301390    0.6185781689552503 Se
   0.6247882573535221    0.1201657827518855    0.8791542957839944 Se
   0.3758500786728213    0.3840701506191364    0.3872002176651210 Se
   0.3658969448111261    0.1267118285352261    0.6329552146986187 Se
   0.1323558592179143    0.8641671690597486    0.1373718956480365 Se
   0.1331481052487169    0.1322489048710309    0.8699903206433185 Se
   0.3667667096352795    0.8653794343791332    0.3677000375609423 Se
   0.3851239673360399    0.6220667834264966    0.6097151257977613 Se
   0.6148175191895356    0.8876487408401602    0.1080570700681865 Se
   0.6187847779271441    0.6178676508057501    0.3832179793975589 Se
   0.3860408767665794    0.8745413941877448    0.8808189279201294 Se
   0.3615679685672908    0.6398937607032035    0.1295868027508046 Se
   0.1340057426123653    0.3713566125197633    0.6317341891664028 Se
   0.1329024606294447    0.6324054624542601    0.3687673100486005 Se
   0.3618336525423733    0.3609192236661011    0.8743740663184878 Se
   0.8891478532919006    0.1094197782572428    0.6192854433216096 Se
   0.1175965695009579    0.3870785299681369    0.1082180157380718 Se
   0.1197913540244262    0.1172348160935135    0.3810436674864475 Se
   0.8721856646487584    0.3825234443501039    0.8847574725356695 Se
   0.8718101540995162    0.1339748994836257    0.1380612129815235 Se
   0.6361713255839619    0.8743278867420572    0.6310811561884443 Se
   0.6305622536983174    0.1301691322231078    0.3699188587687761 Se
   0.8667844192795833    0.8688795443513669    0.8657999840591474 Se
   0.8858633535494957    0.6162487596130402    0.1175653673192240 Se
   0.1113898330467857    0.8810825178530265    0.6177135418323592 Se
   0.1221043064779628    0.6213725868763307    0.8830851975232878 Se
   0.8808061040878732    0.8772436172047615    0.3808733799458258 Se
   0.8688801772897242    0.6354027268353920    0.6347327176070590 Se
   0.6347220087341335    0.3680389417051038    0.1325797855646736 Se
   0.6329214900229480    0.6401698954193037    0.8673263268618921 Se
   0.8743397674460632    0.3669779677653957    0.3668106726623730 Se
