Mg7 Sc16 Se32
1.0
  11.1003847944368736    0.0000000000000000    0.0000000000000000
   0.0000000000000000   11.1003847944368736    0.0000000000000000
  -0.0000000000000000   -0.0000000000000000   11.1003847944368736
Mg Sc Se
7 16 32
direct
   0.5020533543022254    0.0058568497167209    0.5059182932355196 Mg
   0.2480022328435321    0.7463572532352543    0.7515798575474538 Mg
   0.5014882268839312    0.4981649427961367    0.9981178481037632 Mg
   0.7501262660605241    0.2500793433751194    0.7499554911539907 Mg
   0.9944831941673413    0.0011286996126329    0.0095598713762148 Mg
   0.7500453929667265    0.7506229750886071    0.2500313413611876 Mg
   0.2134222368632429    0.2437648236767142    0.1843664129485067 Mg
   0.1256692780564413    0.8775630570560505    0.3883050901754573 Sc
   0.3666869914954085    0.1291427819362756    0.8707288770893683 Sc
   0.3770797646924449    0.3777977213110323    0.6183899713410523 Sc
   0.1154158980563536    0.1257447531021650    0.6235815146251446 Sc
   0.1229348506395448    0.3744104812147481    0.8731510572518333 Sc
   0.3763607183356147    0.6242836210323248    0.3757630060725124 Sc
   0.3777590921827362    0.8752850269193579    0.1252624601274739 Sc
   0.1162251841026119    0.6308821374029303    0.1251681256088361 Sc
   0.6224287635761320    0.8835987258845379    0.8786653408249275 Sc
   0.8646764081136068    0.1203549103997811    0.3817439126074487 Sc
   0.8674342826106289    0.3800227449934830    0.1326784551964321 Sc
   0.6236040335097839    0.1254870459965865    0.1269070375687765 Sc
   0.6192614517325375    0.3846197997801262    0.3763520197232548 Sc
   0.8744547560914435    0.6261393206805019    0.8742896679056484 Sc
   0.8724328643253128    0.8765188550896919    0.6208619789677430 Sc
   0.6246267627843605    0.6248569836986121    0.6247602761782637 Sc
   0.3892694219932922    0.1286967911224607    0.1215212885453989 Se
   0.6169314850967119    0.3856299002789053    0.6129015403889860 Se
   0.6292675486471423    0.1185950780033222    0.8854536306115651 Se
   0.3862110407938210    0.3779047188953875    0.3812142614002039 Se
   0.3673387583375959    0.1256418963760221    0.6350211489403499 Se
   0.1296863140380013    0.8641036882943391    0.1350135649538852 Se
   0.1390583807889776    0.1331822111802049    0.8662881932821258 Se
   0.3680278647930804    0.8661234285734275    0.3657339630211596 Se
   0.3792178097724758    0.6243394471007155    0.6088134361343863 Se
   0.6136274528258158    0.8861407339923975    0.1187042695834712 Se
   0.6172687748379448    0.6155257048677730    0.3841786283747374 Se
   0.3795549576243804    0.8900233407526763    0.8897316485151778 Se
   0.3700229954059764    0.6289549063276521    0.1281380553321042 Se
   0.1331916612535436    0.3629555216076212    0.6394616486414830 Se
   0.1279462820620653    0.6284593767800055    0.3711669956160594 Se
   0.3684074662767571    0.3620709703810192    0.8624745502109248 Se
   0.8831301728296753    0.1294416901601617    0.6124330830046559 Se
   0.1273292829613377    0.3805857693687513    0.1170378382422197 Se
   0.1185041374680199    0.1189541221733649    0.3812034000373714 Se
   0.8834208016095757    0.3831559996079678    0.8830971237613608 Se
   0.8641525671052777    0.1332427358412567    0.1399008208447980 Se
   0.6209709177996098    0.8641400656116767    0.6268395821714330 Se
   0.6272681360107537    0.1393426740557577    0.3718023365519266 Se
   0.8685613610846470    0.8662985855588941    0.8602706288982916 Se
   0.8891811779117477    0.6168027491900798    0.1272643174012223 Se
   0.1172352853407947    0.8824821412060161    0.6182371109039052 Se
   0.1144684694827307    0.6126552144432424    0.8822997305881682 Se
   0.8851485310243754    0.8841265185968276    0.3837956781266943 Se
   0.8730541179710158    0.6329475414143078    0.6390628378538984 Se
   0.6372210753688500    0.3696622275108363    0.1354527857303762 Se
   0.6230410455027683    0.6380965009921815    0.8742090218457592 Se
   0.8667957820259132    0.3617114997462347    0.3651473545286618 Se
