Mg7 Sc16 Se32
1.0
  11.1003847944368736    0.0000000000000000    0.0000000000000000
   0.0000000000000000   11.1003847944368736    0.0000000000000000
  -0.0000000000000000   -0.0000000000000000   11.1003847944368736
Mg Sc Se
7 16 32
direct
   0.5015394652153872    0.9991330287531972    0.4990489896730446 Mg
   0.2500206054866924    0.7496942847675793    0.7501754408897940 Mg
   0.2087145062984997    0.2748771273982276    0.1988282194775503 Mg
   0.7484243256364247    0.2504441750667006    0.7499749933790207 Mg
   0.9976409612352304    0.0024597915542923    0.9975767328009135 Mg
   0.7492987634801160    0.7501136108754708    0.2495623007128000 Mg
   0.0007895713923382    0.4982906083249241    0.5015795010630287 Mg
   0.1244550671122068    0.8757183468905654    0.3751365930605028 Sc
   0.3737658390326112    0.1270915099747155    0.8713069957480637 Sc
   0.3739374006820500    0.3735877797849308    0.6256893472729550 Sc
   0.1265776354812936    0.1262193866987986    0.6233362270059550 Sc
   0.1251945780980010    0.3753964657812525    0.8746502142152982 Sc
   0.3786635452534895    0.6257695161502859    0.3748325742147232 Sc
   0.3727974384090374    0.8767059335730694    0.1230079140502846 Sc
   0.1251142169739536    0.6272637229274719    0.1259840860918500 Sc
   0.6251460902111290    0.8750269490605626    0.8749905478121283 Sc
   0.8718314686882219    0.1246008635976038    0.3750441175461587 Sc
   0.8743238951036970    0.3755508561898312    0.1251918011953628 Sc
   0.6259579472668403    0.1219872707280079    0.1243465111329676 Sc
   0.6248508560809278    0.3750599784256831    0.3734845600343153 Sc
   0.8750035913230698    0.6249559953597656    0.8748661211252814 Sc
   0.8747372844458073    0.8755106499529226    0.6263076158654930 Sc
   0.6282340168156321    0.6241576536489573    0.6228147470778530 Sc
   0.3814422497010026    0.1177226629227659    0.1210521687895306 Se
   0.6171774002109244    0.3825776724451176    0.6171686260243227 Se
   0.6158018582727764    0.1195058378677549    0.8845538404975085 Se
   0.3788141190492483    0.3842444887070405    0.3825450489196803 Se
   0.3675309569926634    0.1324598221315172    0.6326111655762979 Se
   0.1347987441113987    0.8651815202868746    0.1339159089248236 Se
   0.1308729961601729    0.1338180052117398    0.8671905483651076 Se
   0.3674921066063989    0.8663528773466862    0.3679170454007260 Se
   0.3829227966499737    0.6173598042846453    0.6170907257713064 Se
   0.6170207960036228    0.8829883501384781    0.1170914403159666 Se
   0.6164373893058802    0.6173190051526387    0.3843580212070665 Se
   0.3831030936166865    0.8832526805393178    0.8829901899640521 Se
   0.3661407651729575    0.6327158869756567    0.1297094818787854 Se
   0.1322869618010089    0.3679597782860986    0.6320190420581510 Se
   0.1338036253968333    0.6315839940635446    0.3690806409094827 Se
   0.3663364508650498    0.3647648832904938    0.8647491669376106 Se
   0.8839964174893918    0.1195062872850044    0.6139872793731445 Se
   0.1180392281464218    0.3823677051749542    0.1173791419282907 Se
   0.1202926339311868    0.1158943691038338    0.3814498683407203 Se
   0.8819285817896080    0.3828686966439716    0.8834828479642796 Se
   0.8676270425753857    0.1330545743924650    0.1323590731893069 Se
   0.6328167335974442    0.8657779871629234    0.6317892553697461 Se
   0.6355149673026704    0.1328283344999179    0.3685366512487808 Se
   0.8670232496527022    0.8666067590826992    0.8656738396735192 Se
   0.8830400296364315    0.6166295392185802    0.1165972796455604 Se
   0.1152339675125366    0.8803275168851966    0.6168107034209629 Se
   0.1156329615911655    0.6166994605852928    0.8846116146428927 Se
   0.8827121888430665    0.8829831918647003    0.3830172876170119 Se
   0.8662256736867369    0.6331101442815027    0.6328636800171724 Se
   0.6315154153509338    0.3647406015845127    0.1317022861272047 Se
   0.6355243593184260    0.6318985285666540    0.8689157295956442 Se
   0.8711913641193613    0.3683465842692619    0.3669055914619002 Se
