Mg7 Sc16 Se32
1.0
  11.1003847944368736    0.0000000000000000    0.0000000000000000
   0.0000000000000000   11.1003847944368736    0.0000000000000000
  -0.0000000000000000   -0.0000000000000000   11.1003847944368736
Mg Sc Se
7 16 32
direct
   0.5001044097066329    0.9999659015293838    0.4999708882556402 Mg
   0.2469661329600704    0.7507744948713692    0.7495331174131017 Mg
   0.5016298860841030    0.5021161110211135    0.9986124278477114 Mg
   0.7536568031231466    0.2508755702676074    0.7497484629302058 Mg
   0.9999638943205056    0.0000039989451128    0.9999978890653531 Mg
   0.7513918454819368    0.7508034925929666    0.2495441336677518 Mg
   0.9999352162930656    0.5017250134548494    0.4998267209872656 Mg
   0.1275223565377677    0.8734618204496694    0.3736145730207782 Sc
   0.3791496426665641    0.1257057910361611    0.8758806396637995 Sc
   0.3783426565457615    0.3744216232030236    0.6238802253480217 Sc
   0.1241315176426020    0.1236166107626379    0.6224093272939627 Sc
   0.1283468563367209    0.3724734529324845    0.8762684504299337 Sc
   0.3728655279673950    0.6275508357636529    0.3742095565056081 Sc
   0.3716310536037571    0.8766383333044037    0.1262908575601246 Sc
   0.1249751736594861    0.6248132996446859    0.1252419386754492 Sc
   0.6278516179379547    0.8723891646130143    0.8752447574138360 Sc
   0.8747128792679113    0.1268875905694618    0.3746363991140688 Sc
   0.8734347036135122    0.3740644158108493    0.1260647194417425 Sc
   0.6235111653955275    0.1247091594530806    0.1244382235133960 Sc
   0.6241148472991078    0.3743575525479291    0.3753687476148388 Sc
   0.8749916925638520    0.6250361092982499    0.8748366729911777 Sc
   0.8765411703347159    0.8786561110457410    0.6238804921600395 Sc
   0.6248399113170674    0.6262207520661761    0.6292248522249642 Sc
   0.3820851035103588    0.1134998293303464    0.1161474304794263 Se
   0.6146988196322059    0.3825082785738176    0.6176242710499664 Se
   0.6166089766066208    0.1195815787628234    0.8833732323716457 Se
   0.3844795078567770    0.3831816725181174    0.3807481039621836 Se
   0.3678650908218538    0.1322055004459265    0.6334822777098009 Se
   0.1346705570955355    0.8652724568261930    0.1341576694595324 Se
   0.1340422064322715    0.1345304365738515    0.8683427418096790 Se
   0.3662081290951579    0.8703560047489440    0.3679050156280350 Se
   0.3803353538490697    0.6145958194040050    0.6148809018076004 Se
   0.6172484896308095    0.8828601921353676    0.1172288298905197 Se
   0.6165284334168946    0.6172820887630254    0.3828241609217458 Se
   0.3835393307746970    0.8798898343266929    0.8815210980305078 Se
   0.3649093590931656    0.6294758203515065    0.1329732678816554 Se
   0.1324143520350207    0.3671899058686709    0.6325254310226091 Se
   0.1329548030515819    0.6327685148818905    0.3671903249697668 Se
   0.3672765223473889    0.3671325151502443    0.8669351060135134 Se
   0.8828031486801522    0.1158755943708096    0.6212763003448210 Se
   0.1160308531513864    0.3834193470177045    0.1185386010209307 Se
   0.1187028702398238    0.1158643942580080    0.3840890121876129 Se
   0.8861365503098402    0.3847839679758900    0.8811995321149531 Se
   0.8670333059144766    0.1331629903031079    0.1328650643566638 Se
   0.6337271298250196    0.8663908464746994    0.6333639048476003 Se
   0.6324144858283561    0.1310327744698683    0.3671426395250081 Se
   0.8670823255673212    0.8674197506452360    0.8667203300407145 Se
   0.8838109920014676    0.6146094676462631    0.1169465074604561 Se
   0.1139739372566465    0.8831395595767250    0.6184609341436876 Se
   0.1163781404523294    0.6138238381012757    0.8808733848528431 Se
   0.8825550728063210    0.8839055474415460    0.3820058715642103 Se
   0.8710870277877107    0.6322378496351198    0.6341928179320786 Se
   0.6332217488400482    0.3660468993414967    0.1326454089441348 Se
   0.6323417787182795    0.6310307664670072    0.8676172588356990 Se
   0.8671146327180517    0.3673644369442691    0.3671059396832975 Se
