Mg7 Sc16 Se32
1.0
  11.1003847944368736    0.0000000000000000    0.0000000000000000
   0.0000000000000000   11.1003847944368736    0.0000000000000000
  -0.0000000000000000   -0.0000000000000000   11.1003847944368736
Mg Sc Se
7 16 32
direct
   0.4982525045820678    0.9987273695642640    0.5022153201500058 Mg
   0.2484523274483049    0.7491841812379557    0.7484930052262522 Mg
   0.5017426292471614    0.5014037046682212    0.0023403741553405 Mg
   0.7473848295163391    0.2505239916967608    0.7484644005290433 Mg
   0.2233002986986918    0.2838913198599884    0.2708392734766565 Mg
   0.7503588530001950    0.7505731660440330    0.2494129358188176 Mg
   0.0000432868239232    0.5000295778495764    0.4982419145890515 Mg
   0.1233405948475476    0.8711932956825807    0.3741315932883676 Sc
   0.3713463546198518    0.1261917132097224    0.8763352445433685 Sc
   0.3739467471124344    0.3750590361907753    0.6258148955464834 Sc
   0.1250515520323913    0.1246853888624526    0.6242968384674122 Sc
   0.1250181646595035    0.3749861704455790    0.8750053032175964 Sc
   0.3745424311011291    0.6249455935641097    0.3745635733482873 Sc
   0.3734425766889363    0.8754298687792985    0.1264777075358793 Sc
   0.1255074409252726    0.6249287700592989    0.1249263958860290 Sc
   0.6225915663453055    0.8774138937339406    0.8737382921534927 Sc
   0.8789645976985290    0.1243906677643075    0.3740653882779996 Sc
   0.8766955690306887    0.3779660323736029    0.1231579256101904 Sc
   0.6253440107784144    0.1262070923090036    0.1211256004743132 Sc
   0.6241708796035258    0.3774806007160049    0.3758712311519504 Sc
   0.8749860316248678    0.6250031318743691    0.8749890423665413 Sc
   0.8744356369977373    0.8729796532155872    0.6248021813050983 Sc
   0.6236747047437524    0.6239049958352282    0.6213326818031150 Sc
   0.3828754201306234    0.1157833053353440    0.1134816906143143 Se
   0.6168885766938532    0.3828344930076779    0.6171611716121734 Se
   0.6164365029655950    0.1165702933338303    0.8840268120003449 Se
   0.3834203180876961    0.3808357758465342    0.3843665751886059 Se
   0.3671713805894829    0.1325899567054556    0.6328201476627890 Se
   0.1352687410647201    0.8671815419609947    0.1308806429183178 Se
   0.1310063994143140    0.1335545468472758    0.8638662163663161 Se
   0.3694456949173321    0.8686612987750394    0.3672023213657502 Se
   0.3824866745860633    0.6181345277947190    0.6158246521618290 Se
   0.6164915443690020    0.8825633775020348    0.1161386735329082 Se
   0.6179920177666445    0.6180014924460359    0.3822918898272988 Se
   0.3793396629742987    0.8816063567758041    0.8848893095638479 Se
   0.3650527549209185    0.6353987734275797    0.1350474135763492 Se
   0.1316815544195792    0.3679022184810034    0.6358134403137583 Se
   0.1327790668418588    0.6328737252757070    0.3671151698405868 Se
   0.3674639916544994    0.3671746659825809    0.8668176281612562 Se
   0.8816009360964157    0.1173598830906920    0.6150551092690438 Se
   0.1156257321890307    0.3834352846022878    0.1196187635610636 Se
   0.1174416676573450    0.1180560258475177    0.3808541053743412 Se
   0.8823002788342104    0.3829507728778288    0.8828747063593622 Se
   0.8705217531488071    0.1311932513114379    0.1308905278894674 Se
   0.6315599727168021    0.8636986746486747    0.6303891384024218 Se
   0.6350089483380017    0.1344915271136200    0.3700539254773301 Se
   0.8672517471018046    0.8665359182235842    0.8671436285628872 Se
   0.8833992403134814    0.6153125494674487    0.1158604280020589 Se
   0.1187187987076724    0.8807987351919844    0.6162643542275377 Se
   0.1166087919391267    0.6190434051084884    0.8834782393100118 Se
   0.8787439575918355    0.8826599901063784    0.3817815327930377 Se
   0.8645011672113613    0.6342690505876036    0.6324128101375011 Se
   0.6324180386005617    0.3682111672836069    0.1319482684358925 Se
   0.6321651377458924    0.6325795845682486    0.8683645174640116 Se
   0.8672108600201961    0.3675316401195745    0.3668124643451174 Se
