Mg7 Sc16 Se32
1.0
  11.1003847944368736    0.0000000000000000    0.0000000000000000
   0.0000000000000000   11.1003847944368736    0.0000000000000000
  -0.0000000000000000   -0.0000000000000000   11.1003847944368736
Mg Sc Se
7 16 32
direct
   0.5012268370897243    0.0107347317848969    0.4876430343073250 Mg
   0.2600827735271555    0.7481505129667573    0.7509438346385322 Mg
   0.5063379259504720    0.5023571356786984    0.9915869852070661 Mg
   0.7570971330143532    0.2577045540829956    0.7587345964041721 Mg
   0.9983319121203242    0.0001882620034823    0.0020160023663104 Mg
   0.7534894679761923    0.7571194731884603    0.2751948402711384 Mg
   0.9958395230426739    0.5132614871664484    0.4929139387156040 Mg
   0.1335913401119293    0.8527064678356050    0.3834450260906640 Sc
   0.3681483098777311    0.1179903793118168    0.8669391226241132 Sc
   0.3737785510670344    0.3797463801582956    0.6214651921495303 Sc
   0.1294543950791788    0.1340588035430392    0.6201458069944669 Sc
   0.1240044189006248    0.3688041260111526    0.8792196632220965 Sc
   0.3767090725790153    0.6057331920312662    0.3928456047650719 Sc
   0.3577160396116729    0.8815109630171711    0.1265573065006982 Sc
   0.1261152797811374    0.6248050678207909    0.1256737187589323 Sc
   0.6296156132144765    0.8721125788840465    0.8707375587421298 Sc
   0.8858534497734063    0.1130050427161146    0.3811716777685493 Sc
   0.8647520641703859    0.3780911970964317    0.1454896754082035 Sc
   0.6233384086121128    0.1137204158540152    0.1271758430999360 Sc
   0.6250586727715588    0.3751318883257361    0.3820053007799309 Sc
   0.8654869406958450    0.6420554440822729    0.8774629492815575 Sc
   0.8821493084363703    0.8737606122198616    0.6197878867718464 Sc
   0.6112734884619253    0.6246922094253052    0.6202186298937074 Sc
   0.3640273118608695    0.1048717770674448    0.1116305280480083 Se
   0.6165580143804194    0.3835678775682389    0.6159914677051135 Se
   0.6239680371139167    0.1134002392987565    0.8800583955536813 Se
   0.3832222865491031    0.3895235091080831    0.4007287456591696 Se
   0.3808649031118756    0.1347361392483066    0.6428523362622187 Se
   0.1413934241677628    0.8691060985084791    0.1340694305366999 Se
   0.1169271842754436    0.1395953729746686    0.8803932950833145 Se
   0.3704880038002980    0.8664111646096244    0.3662202770681863 Se
   0.3921704579314430    0.6169867986771729    0.6193025563074570 Se
   0.6336945780857700    0.8835666640084775    0.1259292046917481 Se
   0.6382427013055477    0.6277160661882843    0.3839433749578586 Se
   0.3717494220157067    0.8769855208285088    0.8852424910064205 Se
   0.3650082347198028    0.6376263694622094    0.1582814631542102 Se
   0.1328901945551561    0.3669771253676803    0.6327170021708124 Se
   0.1155784564663908    0.6301615400967012    0.3656945013855250 Se
   0.3742445779120651    0.3634149710008546    0.8672040215016569 Se
   0.8657781649235791    0.1186010476215083    0.6146150870709753 Se
   0.1195273665661653    0.4014513584204265    0.1234006131282811 Se
   0.1116008619308082    0.1284247996995081    0.3704461660304310 Se
   0.8747667277978853    0.4061058424180960    0.8733526321982251 Se
   0.8553221293616667    0.1207627755727208    0.1225269442835520 Se
   0.6233967692315115    0.8614273599879048    0.6368567239336251 Se
   0.6503493599374399    0.1236183292233167    0.3554471045078906 Se
   0.8627408649184669    0.8451192502918852    0.8582301587058790 Se
   0.8875723125134188    0.6224557787552386    0.1100247694876970 Se
   0.1161133677428791    0.8861612043837163    0.6157077933300118 Se
   0.1117036694363751    0.6287696244438802    0.8893836468288734 Se
   0.8829063365859651    0.8834957999051866    0.3824841447576928 Se
   0.8521820046290388    0.6334185176044721    0.6504373582469890 Se
   0.6349146162550702    0.3532854579862096    0.1214092092166839 Se
   0.6336784106238470    0.6315479943498223    0.8895114999472896 Se
   0.8657685457171490    0.3715082440948838    0.3407184000246291 Se
