Mg7 Sc16 Se32
1.0
  11.1003847944368736    0.0000000000000000    0.0000000000000000
   0.0000000000000000   11.1003847944368736    0.0000000000000000
  -0.0000000000000000   -0.0000000000000000   11.1003847944368736
Mg Sc Se
7 16 32
direct
   0.4988064483634419    0.0017901419510668    0.5003361339590839 Mg
   0.2494282375629437    0.7538725246935118    0.7565950927061861 Mg
   0.1756786051194281    0.2296618673921143    0.2478996422574851 Mg
   0.7498669131466004    0.2502463160909886    0.7521791482319415 Mg
   0.9962771641328021    0.0014559009793225    0.9962641849312243 Mg
   0.7475176577549082    0.7489236624908354    0.2497392751304290 Mg
   0.9998082297147125    0.5010274699285535    0.4998350116268214 Mg
   0.1264383666732395    0.8795472579746548    0.3750414814014031 Sc
   0.3749804988076410    0.1248744074040270    0.8748568800758859 Sc
   0.3622222140503977    0.3792387603195919    0.6277486118229860 Sc
   0.1235101972555345    0.1358853773576368    0.6212110524894973 Sc
   0.1251192185121392    0.3750481126525061    0.8753795863583350 Sc
   0.3758989849282970    0.6279042859053829    0.3795367380129731 Sc
   0.3776271543682765    0.8731224672606315    0.1259875773575792 Sc
   0.1252488504538732    0.6252719090019712    0.1252620270477312 Sc
   0.6212570524596746    0.8716057051724194    0.8778909687851305 Sc
   0.8829991570133728    0.1248661805438931    0.3785006431402026 Sc
   0.8688618076016198    0.3736228846306538    0.1204296855740559 Sc
   0.6273213308547821    0.1369962126874219    0.1307751992583811 Sc
   0.6333476034459010    0.3721401590238784    0.3715121810830437 Sc
   0.8617323464627611    0.6281366640651671    0.8757763036588047 Sc
   0.8766857182597582    0.8722793549938426    0.6267750573163452 Sc
   0.6216072074584865    0.6221986042336854    0.6297053584577252 Sc
   0.3836376997594537    0.1217743169360097    0.1112009656025382 Se
   0.6183291587412459    0.3832725674939301    0.6136405203295634 Se
   0.6175200884157224    0.1152069416456166    0.8842777301531941 Se
   0.3818424857549383    0.3841949381205106    0.3851915944264320 Se
   0.3640853302824161    0.1393388628058932    0.6222519286947091 Se
   0.1294156919252875    0.8608332600874773    0.1240508859482033 Se
   0.1326661824607893    0.1329193300152333    0.8673823114632943 Se
   0.3644457126899285    0.8803138523026179    0.3709433825643457 Se
   0.3835689246096340    0.6159989549497588    0.6158992381382107 Se
   0.6181515778559692    0.8834474733352360    0.1156689122939642 Se
   0.6163846091956625    0.6172911559804682    0.3830836622954163 Se
   0.3763690199394493    0.8906002549965338    0.8897328614075047 Se
   0.3627574065272582    0.6336753326288795    0.1310130725842750 Se
   0.1369136202718456    0.3696070877055943    0.6283017165338988 Se
   0.1227677688810323    0.6390532164076804    0.3739069511781750 Se
   0.3629836154378532    0.3654864782877880    0.8790011223481956 Se
   0.8818780138343694    0.1164627843109098    0.6159731127216249 Se
   0.1182396148302448    0.3820726126168692    0.1164982214649346 Se
   0.1192900466682651    0.1153981574824299    0.3805037610418484 Se
   0.8827317214558605    0.3765309981778445    0.8794294769943460 Se
   0.8592258561290819    0.1272047617423769    0.1360924661641028 Se
   0.6334238811199027    0.8681901765040076    0.6334867711495961 Se
   0.6274074843950902    0.1265445058679474    0.3641441143077260 Se
   0.8798811793178566    0.8631775690625210    0.8647742963816005 Se
   0.8918707687659415    0.6110591822281726    0.1227505127286135 Se
   0.1302751168767628    0.8819069490681162    0.6209875593801096 Se
   0.1187353811827795    0.6112546387186965    0.8859346717557216 Se
   0.8832957978581927    0.8926666879602924    0.3872195313383015 Se
   0.8650943205855517    0.6224978042171223    0.6410049757906157 Se
   0.6286217189792547    0.3671168469886684    0.1372065466439860 Se
   0.6345276186293767    0.6302717435289883    0.8634714457765039 Se
   0.8660779115067644    0.3618489984577177    0.3624722872482264 Se
