Mg7 Sc16 Se32
1.0
  11.1003847944368736    0.0000000000000000    0.0000000000000000
   0.0000000000000000   11.1003847944368736    0.0000000000000000
  -0.0000000000000000   -0.0000000000000000   11.1003847944368736
Mg Sc Se
7 16 32
direct
   0.4996040779815291    0.9983126301908218    0.5012531767437776 Mg
   0.2574328777448278    0.4680493038767564    0.4557731362078193 Mg
   0.4972980043915893    0.5004333686249773    0.9951870778814670 Mg
   0.7572122880483524    0.2486205919869388    0.7523185376934706 Mg
   0.9988399278497783    0.0053638999228026    0.9974212330243779 Mg
   0.7480051279943843    0.7479842695949367    0.2559679324736381 Mg
   0.9993948948799913    0.5007986899847596    0.5026776409117488 Mg
   0.1258481761832843    0.8752911248092620    0.3741697652708580 Sc
   0.3754004782060049    0.1203746906840266    0.8729293413076374 Sc
   0.3752754545650536    0.3755630271472508    0.6262900919655883 Sc
   0.1268990206494812    0.1311636821894542    0.6278164940913117 Sc
   0.1243237951321685    0.3743933929003679    0.8758217277803663 Sc
   0.3760656050608004    0.6259458308056609    0.3750532119935339 Sc
   0.3739578867606443    0.8762765633118947    0.1272320721906834 Sc
   0.1255991384097511    0.6246278262262049    0.1177255753725536 Sc
   0.6252748159130447    0.8789360685739595    0.8763737003027637 Sc
   0.8750315622528323    0.1249909933999461    0.3750413268323500 Sc
   0.8760637862777564    0.3755908819692507    0.1261508770485131 Sc
   0.6295074169579715    0.1248049193031734    0.1207045826239044 Sc
   0.6180280538595246    0.3720134017666437    0.3755182803662175 Sc
   0.8727838806882646    0.6301668526569758    0.8730904520215116 Sc
   0.8753235970229930    0.8747122888663167    0.6254173436943034 Sc
   0.6260831010370900    0.6265392855722034    0.6265130335134723 Sc
   0.3785063629108833    0.1150924043878302    0.1155088609898559 Se
   0.6179524906285219    0.3845557994182175    0.6234706457037170 Se
   0.6203166109633339    0.1165869198453270    0.8864427647506496 Se
   0.3803857478698623    0.3843187831936622    0.3814025541312629 Se
   0.3670408894309755    0.1291636745649136    0.6321262368192964 Se
   0.1326776606707559    0.8691784430142785    0.1330505246996744 Se
   0.1360370204442265    0.1333314929464696    0.8660480898236654 Se
   0.3668648373870407    0.8656821056762384    0.3698820369345608 Se
   0.3842932298458477    0.6174618302562567    0.6143663892124961 Se
   0.6162854375595053    0.8760692698447263    0.1197617257719581 Se
   0.6187278969515608    0.6216891033346489    0.3829006996002189 Se
   0.3760639183898803    0.8850675225947187    0.8847696845417544 Se
   0.3670625268184832    0.6331655319234716    0.1327424988662992 Se
   0.1349432568978455    0.3679615244513784    0.6316005794461276 Se
   0.1378928799208162    0.6334777008934042    0.3644812143603629 Se
   0.3655195860059332    0.3682217124931870    0.8682867040409394 Se
   0.8793315116463546    0.1151534485508893    0.6215275096497760 Se
   0.1208629690874193    0.3800820978919272    0.1111869949753214 Se
   0.1177293434045414    0.1160943401799392    0.3828102537519981 Se
   0.8772826658017221    0.3858848617260059    0.8824977380370972 Se
   0.8690721399594309    0.1309039334601350    0.1380019331984278 Se
   0.6359511099895254    0.8672974931185762    0.6348095714940644 Se
   0.6354038236791784    0.1354409880964375    0.3623214482099947 Se
   0.8654507958390935    0.8686134477100395    0.8680842307900010 Se
   0.8852554310207823    0.6192442198142982    0.1176592693654804 Se
   0.1171494868540240    0.8825915910614602    0.6172644171505143 Se
   0.1160010129030435    0.6157273927239212    0.8847386298609984 Se
   0.8844753920990254    0.8849228178472830    0.3809948616248472 Se
   0.8668064695940672    0.6329934551991111    0.6293861234801887 Se
   0.6357594750486592    0.3642920507336459    0.1337008395685301 Se
   0.6368168308301174    0.6357616450692115    0.8633839713657482 Se
   0.8626812799597533    0.3666752652012091    0.3688638063729130 Se
