Mg7 Sc16 Se32
1.0
  11.1003847944368736    0.0000000000000000    0.0000000000000000
   0.0000000000000000   11.1003847944368736    0.0000000000000000
  -0.0000000000000000   -0.0000000000000000   11.1003847944368736
Mg Sc Se
7 16 32
direct
   0.5018047440169424    0.9998819112415266    0.5002020375392990 Mg
   0.2518651552903856    0.7546637576994788    0.7585495265666704 Mg
   0.5022046591521128    0.5055402800065947    0.9999844834365135 Mg
   0.7476242382746410    0.2477753651337344    0.7434394204932073 Mg
   0.0034855499123784    0.9941183466465994    0.9988329417523056 Mg
   0.7473420534235581    0.7439179694975422    0.2435072776872100 Mg
   0.1510161862056076    0.3039645334988370    0.2285041660348139 Mg
   0.1260521173244500    0.8756758946030206    0.3747850320776701 Sc
   0.3737967929388372    0.1251650872943217    0.8745208966145374 Sc
   0.3706564122329024    0.3823742827537897    0.6226710592917247 Sc
   0.1226956216776493    0.1257091432905456    0.6227390434803135 Sc
   0.1218072802466138    0.3773995336455105    0.8766808464526070 Sc
   0.3708145190684632    0.6241045206787811    0.3750282377517711 Sc
   0.3740749871828734    0.8745701179647835    0.1240343523235532 Sc
   0.1272311719380427    0.6216094139843131    0.1240771190289064 Sc
   0.6265877703654897    0.8675517757745935    0.8792025584249686 Sc
   0.8713222884181732    0.1290840891376817    0.3746392998694845 Sc
   0.8746518832148773    0.3756983250385359    0.1263978475693803 Sc
   0.6248343138250327    0.1288531318515559    0.1152077335859241 Sc
   0.6264674413346132    0.3749437158480295    0.3734175968575892 Sc
   0.8749094542916694    0.6249663701242854    0.8745650771775096 Sc
   0.8702757312658865    0.8749713938096301    0.6249277529195800 Sc
   0.6316549628136280    0.6259266045758509    0.6257254333245529 Sc
   0.3888483889744763    0.1138699948820808    0.1136999074708322 Se
   0.6162453845593889    0.3819489608389308    0.6164437582529799 Se
   0.6104096164950146    0.1201492255402370    0.8817891398849459 Se
   0.3833297293872083    0.3859164018610977    0.3822932571107662 Se
   0.3704985269351617    0.1329792610725241    0.6292916222304530 Se
   0.1348331011961263    0.8701746007012242    0.1311974737577721 Se
   0.1346918629279436    0.1303879110587851    0.8690739369805955 Se
   0.3618777356091171    0.8664487703759910    0.3705854211397770 Se
   0.3803622048349338    0.6144439665290483    0.6176776486508521 Se
   0.6167543017864505    0.8838491131356073    0.1145346944000817 Se
   0.6167321040259872    0.6172915695410572    0.3828980018232817 Se
   0.3834033937072763    0.8824150766030998    0.8830696916681803 Se
   0.3679578287949452    0.6335284003993509    0.1366800357137490 Se
   0.1332681334907404    0.3705106015875137    0.6323753922094669 Se
   0.1390366883874928    0.6359216467462910    0.3653050490462389 Se
   0.3671912836429892    0.3670770275214436    0.8669324884482001 Se
   0.8822350992580406    0.1169074151333649    0.6174233923140156 Se
   0.1225339106812362    0.3834686868828084    0.1138156246520131 Se
   0.1226576920223996    0.1167434624203235    0.3829816137295447 Se
   0.8901459309452709    0.3757307004636135    0.8797985265263016 Se
   0.8630670600209035    0.1357964476179376    0.1310861995538327 Se
   0.6354201957747384    0.8680152403456154    0.6332774470006932 Se
   0.6344335572005804    0.1362299614813274    0.3689763544013429 Se
   0.8658167992308987    0.8670884753722391    0.8691454569731797 Se
   0.8835520715280336    0.6141597404710232    0.1241724220044258 Se
   0.1162127077553353    0.8824588345397374    0.6151091337265580 Se
   0.1167883726467120    0.6176680715480325    0.8828168295785578 Se
   0.8812493985597525    0.8913215509052586    0.3879003128290247 Se
   0.8710281824822371    0.6294126055626499    0.6319893115701178 Se
   0.6294701697093351    0.3763411170589483    0.1290614506041539 Se
   0.6320663413013381    0.6346518107841909    0.8595388297994120 Se
   0.8672666071436753    0.3678639844392453    0.3673175850257496 Se
