Mg7 Sc16 Se32
1.0
  11.1003847944368736    0.0000000000000000    0.0000000000000000
   0.0000000000000000   11.1003847944368736    0.0000000000000000
  -0.0000000000000000   -0.0000000000000000   11.1003847944368736
Mg Sc Se
7 16 32
direct
   0.5011780642708769    0.9979974972323760    0.5041705808671145 Mg
   0.2497109774911388    0.7500583605022325    0.7495461859496275 Mg
   0.4991351654068211    0.4990976765594517    0.9982831986078534 Mg
   0.7515292149091306    0.2471165047096894    0.7484821505810023 Mg
   0.2494866186657659    0.2549276380204947    0.2566618713956640 Mg
   0.7605556115599140    0.7540583658640450    0.2431434542532208 Mg
   0.9932393759169669    0.4867526134739423    0.5034464716549057 Mg
   0.1191628390185925    0.8705982685775078    0.3769537787231494 Sc
   0.3750214873383746    0.1251572914818687    0.8747490866261444 Sc
   0.3727430425355200    0.3770760106360197    0.6333093089902680 Sc
   0.1254943008516631    0.1264189835433937    0.6211349712520765 Sc
   0.1246676792255235    0.3737335609800266    0.8744842586770069 Sc
   0.3617579176312087    0.6329928093103423    0.3856478989712923 Sc
   0.3715907636303848    0.8720096649308703    0.1232659281991658 Sc
   0.1290463176188108    0.6207287073269648    0.1290630942947931 Sc
   0.6208169193958941    0.8584475861537184    0.8750749144974631 Sc
   0.8733858385152263    0.1271493929697903    0.3739351158541887 Sc
   0.8777231429780469    0.3775638191618616    0.1129613903179488 Sc
   0.6304899906231216    0.1341886078495079    0.1300888869570337 Sc
   0.6218857104941256    0.3810357544079458    0.3637461186225716 Sc
   0.8727025418071120    0.6372151919941009    0.8897038978716127 Sc
   0.8758552804675257    0.8704989450966827    0.6287991331547715 Sc
   0.6260603387111735    0.6254321027270073    0.6270293579204879 Sc
   0.3816820996862273    0.1206514680279583    0.1110480797641148 Se
   0.6201717234470365    0.3789663260036055    0.6013264709398649 Se
   0.6153080455339690    0.1119054255422886    0.8846885660869220 Se
   0.3775428834047400    0.3969451730652183    0.3893132607169528 Se
   0.3683321661186696    0.1342593238132271    0.6340613914632249 Se
   0.1212610179715411    0.8695881925970346    0.1194360114945498 Se
   0.1360943076019054    0.1343813145710508    0.8614031300837947 Se
   0.3622047730597596    0.8709463484752681    0.3698220242086027 Se
   0.3815246879383785    0.6118940980171461    0.6166808955050579 Se
   0.6133223454926815    0.8883885491723097    0.1176187086622031 Se
   0.6233899412750376    0.6248991984781578    0.3805120390029849 Se
   0.3854307330299364    0.8846445029565226    0.8816716474918910 Se
   0.3611114878653983    0.6458570186792321    0.1382854870152448 Se
   0.1363850283913443    0.3705538606966345    0.6356256022285572 Se
   0.1316549526528125    0.6250001725450151    0.3679427181498864 Se
   0.3770365535631797    0.3537838320873379    0.8721848530197435 Se
   0.8820431893852719    0.1036296183525398    0.6225298051960941 Se
   0.1052697049916031    0.3758119804743146    0.1069104084222130 Se
   0.1132019949302930    0.1123474871499888    0.3810768667368332 Se
   0.8847841530580558    0.3768250863014239    0.8836129791279578 Se
   0.8636704244836172    0.1372225446292263    0.1302912300356436 Se
   0.6431205492692511    0.8723816393277930    0.6312022671507911 Se
   0.6349124026013921    0.1380566336448773    0.3634341839631812 Se
   0.8801014961123910    0.8715700373366595    0.8787738932984078 Se
   0.8863934867553549    0.6158975784839749    0.1074579767096746 Se
   0.1184461245459487    0.8883327886465572    0.6311179771371701 Se
   0.1145773366351392    0.6112720701171146    0.8867606424107708 Se
   0.8945761234795649    0.8781560930082194    0.3947173492571000 Se
   0.8700026927352803    0.6229375483497392    0.6377931451887069 Se
   0.6366702647986963    0.3635174602992932    0.1183546878028208 Se
   0.6373603482575003    0.6332367648812737    0.8829533161560424 Se
   0.8674046905821049    0.3755706139474622    0.3623508495566747 Se
