Mg7 Sc16 Se32
1.0
  11.1003847944368736    0.0000000000000000    0.0000000000000000
   0.0000000000000000   11.1003847944368736    0.0000000000000000
  -0.0000000000000000   -0.0000000000000000   11.1003847944368736
Mg Sc Se
7 16 32
direct
   0.4972161074186346    0.0029110993894951    0.5081190643804541 Mg
   0.2435684916529397    0.7627791170586511    0.7357254243305590 Mg
   0.5055872830112381    0.5017071880121805    0.0077950065898021 Mg
   0.7546785001764884    0.2578884399609500    0.7475878236305029 Mg
   0.0094224706068469    0.0040637026577262    0.0177579589797810 Mg
   0.7469342230355226    0.7697572551994433    0.2461361639163278 Mg
   0.0732281978439061    0.4346508342584044    0.4253163993150471 Mg
   0.1300916183940972    0.8714928943274149    0.3738667536006342 Sc
   0.3825364640675811    0.1125736890925981    0.8733118850702516 Sc
   0.3904689279560780    0.3805718962583283    0.6304020234880929 Sc
   0.1288575126165140    0.1252479637436832    0.6164619529247483 Sc
   0.1313444356428849    0.3818633732149797    0.8874046007195482 Sc
   0.3670778441840364    0.6286851204619490    0.3676620557779811 Sc
   0.3705016774610835    0.8769750856493014    0.1242871874112793 Sc
   0.1223508042076584    0.6252022456103443    0.1204493425330543 Sc
   0.6250325293094590    0.8751579939562834    0.8751750988315513 Sc
   0.8917442066451953    0.1214282998983124    0.3759410443384762 Sc
   0.8720891979484894    0.3602910834446247    0.1154676870064088 Sc
   0.6323887400139913    0.1261080617490033    0.1267851073389233 Sc
   0.6422205637654297    0.3836392083401595    0.3817662761303349 Sc
   0.8757336243154350    0.6212343930465278    0.8708974665943868 Sc
   0.8676976753840892    0.8613943482928677    0.6323811380799799 Sc
   0.6246066794565864    0.6263913004607722    0.6204430217583576 Sc
   0.3834109295050085    0.1174601864251315    0.1173864413658532 Se
   0.6172097538513440    0.3828167858852902    0.6172860282841662 Se
   0.6109253627582540    0.1169536501670351    0.8748001186423507 Se
   0.3836075131475133    0.3829857731953588    0.3833951275757830 Se
   0.3660775464258134    0.1336817235127616    0.6333139320629022 Se
   0.1304946662963150    0.8657689077303556    0.1355229597991812 Se
   0.1344517736722802    0.1396063318043663    0.8755211796497421 Se
   0.3679467717275755    0.8692575958545005    0.3674445754456013 Se
   0.3803664374474400    0.6148426714996782    0.6181102610818892 Se
   0.6066632466618435    0.8897226830152084    0.1258085595876647 Se
   0.6265056536340636    0.6089466971995368    0.3843656787206653 Se
   0.3822270919371838    0.8815884401925919    0.8896739613334884 Se
   0.3680322514946754    0.6326380270126384    0.1382062677084716 Se
   0.1362057634752057    0.3591082797716663    0.6286762601242135 Se
   0.1298645058183407    0.6255542611596331    0.3572687496732092 Se
   0.3667038481731772    0.3674318989356972    0.8656933199061931 Se
   0.8743279745774940    0.1155609418335184    0.6107031678888328 Se
   0.1176565550742200    0.3831208122978297    0.1168965781566445 Se
   0.1167102537691352    0.1167160975704129    0.3840612319430800 Se
   0.8913364669567576    0.3811056703755563    0.8823928618557368 Se
   0.8666517707312992    0.1331550497064546    0.1332288124344436 Se
   0.6355540807006754    0.8665612932640739    0.6323854699006016 Se
   0.6307689747528270    0.1151302297718497    0.3592935901434872 Se
   0.8700030352835573    0.8679011017779750    0.8702770884086730 Se
   0.8784118398327249    0.6139881232547194    0.1141772066178379 Se
   0.1183253286664967    0.8846491463716506    0.6180210120863444 Se
   0.1155257396506218    0.6095204500712933    0.8908867395330298 Se
   0.8848358855230057    0.8802852948514766    0.3880561916692437 Se
   0.8663774832670394    0.6308907783280659    0.6367916002717878 Se
   0.6329926346303436    0.3726064424794253    0.1305783201091415 Se
   0.6331205263378781    0.6347694806650696    0.8746349308449790 Se
   0.8690224976016824    0.3563204383170673    0.3542671051307530 Se
