Mg7 Sc16 Se32
1.0
  11.1003847944368736    0.0000000000000000    0.0000000000000000
   0.0000000000000000   11.1003847944368736    0.0000000000000000
  -0.0000000000000000   -0.0000000000000000   11.1003847944368736
Mg Sc Se
7 16 32
direct
   0.4933007018840890    0.9880788056666769    0.4976037357464190 Mg
   0.2366734185374057    0.7394737084798981    0.7475115698544661 Mg
   0.5103494965853484    0.4916666580533701    0.9966210379261220 Mg
   0.7483043568650346    0.2514743332529820    0.7471851824714403 Mg
   0.0094537039483003    0.9886924885184346    0.9841184133597108 Mg
   0.7289359818352489    0.7465516160045664    0.2396685853814285 Mg
   0.0481072895435349    0.4718156577403051    0.4648580605748917 Mg
   0.1251781600503356    0.8752484459159311    0.3741358637919552 Sc
   0.3748320367925082    0.1266426230380483    0.8671947118122054 Sc
   0.3766892409386624    0.3736905030015346    0.6254528601628404 Sc
   0.1193229833015498    0.1440136343101708    0.6185898180629512 Sc
   0.1176053742347353    0.3693103857668848    0.8741279158832448 Sc
   0.3897362983134519    0.6302228532159757    0.3654291843214800 Sc
   0.3755923282376266    0.8917110434397415    0.1329342176207215 Sc
   0.1246486686229153    0.6263282527676634    0.1285048277913768 Sc
   0.6237205885649548    0.8753128379374980    0.8757746936530144 Sc
   0.8909931799230434    0.1220942444893380    0.3769160889691793 Sc
   0.8557931195680945    0.3780291625536514    0.1273860192646289 Sc
   0.6288591707799825    0.1239960289376169    0.1176419605302508 Sc
   0.6372427668538097    0.3814050734743266    0.3874368401188127 Sc
   0.8828229966665530    0.6323966158894612    0.8732507508847334 Sc
   0.8768310250235696    0.8747888136544876    0.6261792875123330 Sc
   0.6245179325324813    0.6235078680890274    0.6239988800280893 Sc
   0.3808727117013768    0.1350183426336678    0.1287672472375009 Se
   0.6220218984757692    0.3889062201048126    0.6171161750858221 Se
   0.6292676970646559    0.1250859642643291    0.8715712597892636 Se
   0.3662058679502684    0.3677370924610286    0.3872333689588603 Se
   0.3610535324041332    0.1212044419936159    0.6227123925532816 Se
   0.1373024437343199    0.8713316978735662    0.1339640403425750 Se
   0.1192037263098176    0.1282079978535561    0.8724045373175848 Se
   0.3642186046297566    0.8884437870737618    0.3618876908698366 Se
   0.3840599713124777    0.6155880652738897    0.6103358677309663 Se
   0.6080085735688581    0.8853628395539140    0.1101247888335881 Se
   0.6067582629569088    0.6043714464819909    0.3863927242015626 Se
   0.3792332266618230    0.8822256882945611    0.8820283186016279 Se
   0.3662936778921023    0.6371318350764360    0.1353695499684441 Se
   0.1483146931653480    0.3751175815148555    0.6341392869103655 Se
   0.1282975776097083    0.6333645812811750    0.3648210911374845 Se
   0.3786102430764121    0.3597296016671267    0.8711999264173909 Se
   0.8838413125080848    0.1272141520708979    0.6142414576941012 Se
   0.1179951613602293    0.3838198055311440    0.1238220431981061 Se
   0.1259223712375289    0.1103746122656432    0.3818959411933381 Se
   0.8839344392312277    0.3725067429391922    0.8889005861221972 Se
   0.8680559247434726    0.1418463363923297    0.1223804820645563 Se
   0.6339305016442489    0.8682239409837023    0.6264408370273822 Se
   0.6441810968333775    0.1396098538529445    0.3817330284558740 Se
   0.8692499185999712    0.8756381264458476    0.8693367660939054 Se
   0.8850217244552868    0.6186826710257805    0.1169419351427999 Se
   0.1220368489636282    0.8811219967283519    0.6127536954572763 Se
   0.1177053781645013    0.6160549395320554    0.8835566713838068 Se
   0.8803302697703933    0.8772031434413707    0.3762106723707859 Se
   0.8510721013604455    0.6278920414484651    0.6407282766630390 Se
   0.6364598811687828    0.3585964516577937    0.1489606895092281 Se
   0.6335445643407124    0.6337746800908068    0.8649888161845796 Se
   0.8475130387420317    0.3636360043194776    0.3725961362888957 Se
