Mg7 Sc16 Se32
1.0
  11.1003847944368736    0.0000000000000000    0.0000000000000000
   0.0000000000000000   11.1003847944368736    0.0000000000000000
  -0.0000000000000000   -0.0000000000000000   11.1003847944368736
Mg Sc Se
7 16 32
direct
   0.5027522376663137    0.0058026743758061    0.4888313148433654 Mg
   0.2214415985661695    0.5630883345721467    0.5406940537755637 Mg
   0.5004389814690814    0.5066258002550197    0.9946890056379546 Mg
   0.7468190966392291    0.2541791288849491    0.7501172583049723 Mg
   0.9986048367222219    0.9979591922841071    0.0022115283069033 Mg
   0.7448361073155513    0.7472415415905940    0.2525894564598989 Mg
   0.0070681824263332    0.5019572541973598    0.4957585599592527 Mg
   0.1250529318047297    0.8750356489600967    0.3749765687734639 Sc
   0.3767665683807555    0.1258506275483121    0.8740400967819890 Sc
   0.3790542954681171    0.3823362553063823    0.6308478297413218 Sc
   0.1246651196808373    0.1184321626083543    0.6247170104445449 Sc
   0.1198060485600755    0.3683412543528620    0.8694630783593185 Sc
   0.3750515312636152    0.6250323182048149    0.3751276117412951 Sc
   0.3737153818742019    0.8763000936900014    0.1295408929287643 Sc
   0.1241925285914811    0.6254117008987518    0.1266881148820187 Sc
   0.6166433546289084    0.8754385679005477    0.8648695386453592 Sc
   0.8750410437574241    0.1239338984118472    0.3740661088087989 Sc
   0.8759931203708655    0.3746225409693800    0.1264764153332703 Sc
   0.6248940342694612    0.1266625958086039    0.1231819661270284 Sc
   0.6177536356585920    0.3724320273341442    0.3688974142641546 Sc
   0.8752726688582798    0.6139279519061714    0.8662137297098593 Sc
   0.8728233173947328    0.8728352130036953    0.6241301493926097 Sc
   0.6259452861870047    0.6230501759613448    0.6271409625587001 Sc
   0.3747321230203493    0.1156978052285870    0.1066622211770334 Se
   0.6194216716860111    0.3830165250336107    0.6141514494745740 Se
   0.6157233696899520    0.1092308764921620    0.8821848729307448 Se
   0.3839785340947204    0.3756692786124183    0.3885337432571636 Se
   0.3669221067704300    0.1342396933542887    0.6308541114682776 Se
   0.1335357749491346    0.8672659042479532    0.1317240408468430 Se
   0.1266162688304441    0.1333623492127414    0.8703181936044995 Se
   0.3661274087284005    0.8622420442187669    0.3697356477977331 Se
   0.3804147185257726    0.6197507927394502    0.6157848741129668 Se
   0.6089396213361478    0.8874521146878483    0.1219245425203734 Se
   0.6176204968790121    0.6168076868978061    0.3829837373212986 Se
   0.3857662576799165    0.8816908872365939    0.8864704915001642 Se
   0.3610628086953951    0.6292240797806463    0.1346081628281574 Se
   0.1338708849950554    0.3674462175477741    0.6327256031637214 Se
   0.1218963864061591    0.6406698149805071    0.3714140045279279 Se
   0.3555020305348435    0.3715042410713353    0.8644733515661556 Se
   0.8816702579293757    0.1206149955861134    0.6185071060994122 Se
   0.1248733107128685    0.3774629681578203    0.1177261479595787 Se
   0.1131301569666388    0.1208126194231612    0.3797299137216917 Se
   0.8808362189016105    0.3885552431111521    0.8839445657106745 Se
   0.8642389138320430    0.1214959692575594    0.1344072969949081 Se
   0.6315539041530953    0.8597984229042651    0.6360872768648226 Se
   0.6328746688120164    0.1327176373116564    0.3671581637854489 Se
   0.8671806890604593    0.8719260007059602    0.8637633985630180 Se
   0.8846488533593899    0.6264054716202900    0.1173338941193308 Se
   0.1170753211213464    0.8876434746042668    0.6089407149334829 Se
   0.1247323057203143    0.6114538434995367    0.8817857885012480 Se
   0.8846418838698218    0.8952196731642021    0.3861813958755294 Se
   0.8627795511636674    0.6360622288064691    0.6358379243037128 Se
   0.6292557804094400    0.3713086274264228    0.1395947888140149 Se
   0.6296151045397054    0.6326205792747435    0.8647668838171740 Se
   0.8702882440629445    0.3687028778282483    0.3704743624471762 Se
