Mg7 Sc16 Se32
1.0
  11.1003847944368736    0.0000000000000000    0.0000000000000000
   0.0000000000000000   11.1003847944368736    0.0000000000000000
  -0.0000000000000000   -0.0000000000000000   11.1003847944368736
Mg Sc Se
7 16 32
direct
   0.4954440464788833    0.0029991260622515    0.5012224840772956 Mg
   0.1952440569848504    0.4154973582592079    0.3711636299637495 Mg
   0.4993948523564559    0.5119594486169827    0.9960950029811482 Mg
   0.7515793397257414    0.2493253303385243    0.7508327728634857 Mg
   0.0182429994051311    0.0093623678260339    0.9874043215239392 Mg
   0.7385828868096485    0.7440373955701475    0.2520359824786503 Mg
   0.9979376719129425    0.4960594767606181    0.4834145992406837 Mg
   0.1278112907447312    0.8914318637937314    0.3914047555712465 Sc
   0.3927625713357529    0.1191440143243119    0.8732785993994597 Sc
   0.3639887626235687    0.3868610662835801    0.6350211474753191 Sc
   0.1202938005110432    0.1363254723436090    0.6193244304825282 Sc
   0.1341350316972411    0.3669562019135210    0.8544003216796268 Sc
   0.3593747646019441    0.6291371044480808    0.3689167400738714 Sc
   0.3771428560622573    0.8819274458633155    0.1046642518110976 Sc
   0.1264610908418466    0.6046309321197672    0.1208960973213292 Sc
   0.6279794540070215    0.8739110390244523    0.8565042552949740 Sc
   0.8544445360207343    0.1116106957783327    0.3803433190391870 Sc
   0.8597507938543526    0.3833052649579268    0.1150888510510473 Sc
   0.6412954937056996    0.1361435945026321    0.1358281908383601 Sc
   0.6224961681361477    0.3755235832686309    0.3594162205541058 Sc
   0.8798558373332994    0.6132741231181164    0.8898975261593395 Sc
   0.8758072797747117    0.8740959359258414    0.6258900088593123 Sc
   0.6105224269082662    0.6307427209489392    0.6220879244103191 Sc
   0.3717749477449899    0.1179574249754346    0.1009572728942453 Se
   0.6179812088130192    0.3787444873210855    0.6157582110637023 Se
   0.6262163606622176    0.1230711786670265    0.8812419740800762 Se
   0.3874982122147190    0.3770762789504957    0.4026144125395519 Se
   0.3634188551874147    0.1537847640969573    0.6328673244273303 Se
   0.1451258521026429    0.8705550424478308    0.1289370595714605 Se
   0.1386164602633265    0.1400008706327056    0.8848612053514973 Se
   0.3664609491633082    0.8770566610934425    0.3746210068922061 Se
   0.3874208290673730    0.6183759440195370    0.6280807691340040 Se
   0.6130496149302929    0.8867894454262524    0.1148815691521037 Se
   0.6326296688612310    0.6121571664329750    0.3709818133316404 Se
   0.3753280337273597    0.8617726340435417    0.8812581678918340 Se
   0.3660738344773080    0.6350252630776613    0.1330195578595162 Se
   0.1334362975519736    0.3701878753143117    0.6396399540306753 Se
   0.1294963113900162    0.6359835388900844    0.3736862071139411 Se
   0.3676321236354621    0.3592937063981484    0.8505302145811369 Se
   0.8796852870734022    0.1161823274461535    0.6341241450424552 Se
   0.1320949132297202    0.3773494455917059    0.1254214865093691 Se
   0.1141158627498449    0.1360986492358575    0.3830991608435403 Se
   0.8842905456419903    0.3938568199261722    0.8769709413754548 Se
   0.8658878010339528    0.1310479343181584    0.1340853764816946 Se
   0.6278287980230676    0.8625786321614265    0.6247999791109377 Se
   0.6321609390551488    0.1325362528316895    0.3668963600089096 Se
   0.8574250907919668    0.8725741507199556    0.8698281580897815 Se
   0.8817744713564073    0.6153557411582931    0.1137167070098886 Se
   0.1145565406389440    0.8836041443824032    0.6139661644477423 Se
   0.1171235119523414    0.6171207192995039    0.8828794191191414 Se
   0.8884156195026081    0.8798341369836287    0.3801163325232746 Se
   0.8673062707048843    0.6352417002085327    0.6330974854826821 Se
   0.6315896189779820    0.3666897971003784    0.1350856532678728 Se
   0.6182850972096265    0.6448240763387403    0.8767972468522200 Se
   0.8692774460026295    0.3759212375127093    0.3636737375430046 Se
