Mg7 Sc16 Se32
1.0
  11.1003847944368736    0.0000000000000000    0.0000000000000000
   0.0000000000000000   11.1003847944368736    0.0000000000000000
  -0.0000000000000000   -0.0000000000000000   11.1003847944368736
Mg Sc Se
7 16 32
direct
   0.4998707283168164    0.9990803187626850    0.4983360874773237 Mg
   0.1823770679000021    0.4287676484348396    0.3653182422244335 Mg
   0.5003371376611321    0.4995986370983773    0.0014970796436851 Mg
   0.7522696438085498    0.2484103592867523    0.7467864860771535 Mg
   0.9999610482963787    0.9999401403015364    0.9999518957863557 Mg
   0.7517612275334536    0.7488306380576328    0.2507955336726092 Mg
   0.0002331571007361    0.5000497911705305    0.5000499603920899 Mg
   0.1249573985427747    0.8750014653990247    0.3750077031328997 Sc
   0.3743769870982080    0.1249521744086778    0.8752300988991849 Sc
   0.3754957720016245    0.3761979464092206    0.6236912326023986 Sc
   0.1242078798091714    0.1239901223948331    0.6250184575761620 Sc
   0.1218334917414257    0.3759549819656067    0.8733711187159299 Sc
   0.3759790731429886    0.6278430229310210    0.3725458391025617 Sc
   0.3737611603169902    0.8743779326246290    0.1245869016720458 Sc
   0.1258087725557530    0.6258753308862228    0.1285498325155200 Sc
   0.6254965547051045    0.8761739644357031    0.8717125238902123 Sc
   0.8750010391252258    0.1250041857083785    0.3750020152130800 Sc
   0.8746900677888619    0.3710894473550485    0.1234123227054473 Sc
   0.6248925246297549    0.1246378121810971    0.1229999762529244 Sc
   0.6260865059084006    0.3741429695743715    0.3752181951647707 Sc
   0.8747519295959135    0.6261007812376941    0.8751442987002145 Sc
   0.8752070262471958    0.8719070576045995    0.6264592171564466 Sc
   0.6262269754452028    0.6239662860685854    0.6220413414671033 Sc
   0.3842255908291804    0.1189618846791230    0.1175258268162252 Se
   0.6170368354191018    0.3836416898187625    0.6173029011986464 Se
   0.6145282174332529    0.1192026274922465    0.8824025257749816 Se
   0.3848821545350286    0.3812382904686432    0.3823863459875181 Se
   0.3671995358113135    0.1327589095079209    0.6326364353587568 Se
   0.1329482013520568    0.8655295867023598    0.1327806493397377 Se
   0.1328671157069985    0.1329022778187928    0.8671078508006269 Se
   0.3660062700942645    0.8651056087557357    0.3665105342336063 Se
   0.3818420491936534    0.6182618407898699    0.6174826285385699 Se
   0.6145606602358651    0.8836018328046967    0.1163030834766836 Se
   0.6161737301922982    0.6185023386380055    0.3848641133208561 Se
   0.3844270926802176    0.8848786927765462    0.8831821913037960 Se
   0.3665346898720498    0.6313375606737848    0.1321476588347536 Se
   0.1311847981237034    0.3684675800800895    0.6307365176209556 Se
   0.1336413009955796    0.6323089689506095    0.3688059221283115 Se
   0.3674082898458911    0.3674124610775446    0.8684484932184219 Se
   0.8829034486823656    0.1171044064563147    0.6172946047076674 Se
   0.1174082533397070    0.3824900272147006    0.1170357775024356 Se
   0.1175915958317836    0.1168932912778221    0.3830421257440870 Se
   0.8824661319581500    0.3822306815132192    0.8812587951115523 Se
   0.8673282828160058    0.1332602008579286    0.1332247922705707 Se
   0.6360299237264457    0.8656407302770062    0.6340259945436453 Se
   0.6306400269362202    0.1299986706984801    0.3676628870556650 Se
   0.8671933945486976    0.8670142650852101    0.8670271343940176 Se
   0.8845166360765225    0.6176888580519553    0.1153016138160129 Se
   0.1190491421907904    0.8862616183676432    0.6162705356458911 Se
   0.1177366410639666    0.6155046430991563    0.8804624753585552 Se
   0.8817994445428268    0.8817742082870700    0.3855558313146036 Se
   0.8668477943748766    0.6328972850568910    0.6321910650354846 Se
   0.6350374146236309    0.3691031211139793    0.1325169575811203 Se
   0.6339619236466575    0.6328249146121664    0.8689906418233850 Se
   0.8676719375789461    0.3653692081365065    0.3684484094834278 Se
