Mg7 Sc16 Se32
1.0
  11.1003847944368736    0.0000000000000000    0.0000000000000000
   0.0000000000000000   11.1003847944368736    0.0000000000000000
  -0.0000000000000000   -0.0000000000000000   11.1003847944368736
Mg Sc Se
7 16 32
direct
   0.5049376967308279    0.0103702167851652    0.5140172077418727 Mg
   0.2505694998482432    0.7623647509242809    0.7555988695887946 Mg
   0.5102794001342348    0.4921088371714382    0.0002572563462125 Mg
   0.7468278984407487    0.2453849876443666    0.7509771179052521 Mg
   0.0025561646311469    0.0117223787820673    0.0008381796631882 Mg
   0.7516889782126597    0.7532277436905281    0.2517231615265184 Mg
   0.2417672873610401    0.2161772920138161    0.2030235141043186 Mg
   0.1258269703115457    0.8865856725983333    0.3856352668830921 Sc
   0.3637140692232641    0.1236956599570812    0.8906382481769083 Sc
   0.3749666747061157    0.3728756930853484    0.6243079686324027 Sc
   0.1412276308839527    0.1213246414782467    0.6134943515062747 Sc
   0.1174298715943247    0.3682391709612517    0.8745469993675213 Sc
   0.3720709368190147    0.6201020540830332    0.3740459993992887 Sc
   0.3735618046854578    0.8812967354958200    0.1413078574924014 Sc
   0.1172376079662921    0.6373464915676524    0.1143288568136736 Sc
   0.6304367348418889    0.8840423197173846    0.8925837235021657 Sc
   0.8758090031753957    0.1257098112494486    0.3737396694576505 Sc
   0.8832106712340340    0.3649398506607433    0.1349373562780309 Sc
   0.6247860034178516    0.1252297828453657    0.1245329264370380 Sc
   0.6203519284665359    0.3694404395153900    0.3802626119161726 Sc
   0.8925568859067567    0.6334325619403414    0.8773810014828098 Sc
   0.8719995923708831    0.8842481411114291    0.6180626362747588 Sc
   0.6339540887164256    0.6327591360330569    0.6385036721399888 Sc
   0.3801867750474841    0.1033745511878591    0.1243212183894601 Se
   0.6083665151384047    0.3785019681114566    0.6173663044216267 Se
   0.6195760728116839    0.1060278335647681    0.8791406085194711 Se
   0.3824899874209810    0.3823325598964349    0.3834822660494881 Se
   0.3793295566675999    0.1224203404602686    0.6494964575377358 Se
   0.1233780689767124    0.8624552159420014    0.1204203560572658 Se
   0.1290419172975748    0.1314906870450830    0.8702301938829456 Se
   0.3660912175110066    0.8604562762124894    0.3589824017051166 Se
   0.3901283350034421    0.6321226205843764    0.6091653208751685 Se
   0.6104583708844565    0.8734289357989251    0.1062518970408550 Se
   0.5996068225708872    0.6121269916154096    0.3932722964375396 Se
   0.3827662789464090    0.8810985214662138    0.8837145588206365 Se
   0.3683903505632145    0.6348039404350810    0.1314054985781218 Se
   0.1324086574306951    0.3764060747290546    0.6444126047746200 Se
   0.1351145163586289    0.6446024863802192    0.3656675955144485 Se
   0.3786575442565986    0.3775847725756291    0.8676208486973888 Se
   0.8843557472293483    0.1170617861733325    0.6189340430544789 Se
   0.1152519909520743    0.3839052446297365    0.1195033671034581 Se
   0.1154692771720416    0.1174086100954090    0.3875605285463281 Se
   0.8821609594388882    0.3764883454456279    0.8674444707255823 Se
   0.8579862022272843    0.1354654109488031    0.1428070874490111 Se
   0.6407677842349813    0.8729293537973069    0.6285991749530515 Se
   0.6330159785471249    0.1471334129073855    0.3824705293434238 Se
   0.8630344015067750    0.8648096720381093    0.8732977601919646 Se
   0.8789747190793987    0.6142412487828212    0.1246725451457849 Se
   0.1162059746031709    0.8829939028840665    0.6174838931670664 Se
   0.1220994839976781    0.6149428491546469    0.8829907602254886 Se
   0.8705625939569989    0.8843868067294585    0.3806286156335661 Se
   0.8674977454577757    0.6336534009824379    0.6107664606227741 Se
   0.6317289256266636    0.3631305896091995    0.1107708601973197 Se
   0.6255330808601250    0.6289744019671778    0.8677597565825067 Se
   0.8672306471369542    0.3670429540504182    0.3671890575429038 Se
