Mg7 Sc16 Se32
1.0
  11.1003847944368736    0.0000000000000000    0.0000000000000000
   0.0000000000000000   11.1003847944368736    0.0000000000000000
  -0.0000000000000000   -0.0000000000000000   11.1003847944368736
Mg Sc Se
7 16 32
direct
   0.2474453385815945    0.1826694617284249    0.2939113989154922 Mg
   0.2383304815827626    0.7393490413582652    0.7456254599801203 Mg
   0.4998491614245931    0.4852000230110920    0.9952791899827063 Mg
   0.7623405223482000    0.2493358770783047    0.7665505088194677 Mg
   0.0004888213529239    0.0001855545712041    0.0012527077326355 Mg
   0.7682069408082510    0.7377492897922077    0.2592485104942291 Mg
   0.9929076305402548    0.5087208780654663    0.4986468858056258 Mg
   0.1141391817500663    0.8937212747184580    0.3911668152152953 Sc
   0.3913893312782040    0.1332442448533399    0.8897236026785720 Sc
   0.3834870267024021    0.3863449547848062    0.6147278428104621 Sc
   0.1224491756289525    0.1189159259466517    0.6227895170563748 Sc
   0.1310285449837988    0.3729202230988792    0.8773000163275391 Sc
   0.3820606792099157    0.6232975272691785    0.3813097543945526 Sc
   0.3937827838677797    0.8804278100813088    0.1367814110248751 Sc
   0.1267182559884368    0.6260455473204661    0.1286841090563727 Sc
   0.6354920588387690    0.8831646764970423    0.8764533196337528 Sc
   0.8725455634454079    0.1221804231456773    0.3765840116335799 Sc
   0.8713511139987915    0.3732059999525528    0.1419263423641035 Sc
   0.6298728482985172    0.1267402913742879    0.1229283896238630 Sc
   0.6290383219116902    0.3668565791361962    0.3770189966818905 Sc
   0.8784338046918774    0.6055705453599373    0.8631091308700619 Sc
   0.8762441841563460    0.8734601067458785    0.6204059077687492 Sc
   0.6308873842579126    0.6288119030946192    0.6103797592882374 Sc
   0.3880167589876220    0.1024257535042959    0.1249315480049832 Se
   0.6242411300679864    0.3922761454461244    0.6083488115927097 Se
   0.6101747562094997    0.1248632373796653    0.8689641373887131 Se
   0.3647756673383128    0.3817173556056683    0.3964026397366654 Se
   0.3724607633121685    0.1308326255709151    0.6288436541725692 Se
   0.1386719564904749    0.8622656204642075    0.1257050456573733 Se
   0.1262146652927476    0.1271815306384854    0.8665955195857169 Se
   0.3673357237921489    0.8688590180483325    0.3756578504316713 Se
   0.3821785910223128    0.6177315659121311    0.6185518483383172 Se
   0.6175170856051938    0.8876731372433415    0.1127392080723569 Se
   0.6239497304485861    0.6205707971460067    0.3891135525797566 Se
   0.3853074818481108    0.8775602787779849    0.8811995457141591 Se
   0.3543366905515186    0.6460696194623016    0.1364120477046503 Se
   0.1279971799695825    0.3828985945195378    0.6281447127368743 Se
   0.1457451390483635    0.6364517390860778    0.3626329285099412 Se
   0.3581371123636210    0.3548540257750756    0.8568714502880560 Se
   0.8971297933823054    0.1249982934795890    0.6185118045446545 Se
   0.1242704704621488    0.3812008685032287    0.1171442899724795 Se
   0.1214234181646617    0.1193997599947663    0.3812083162969009 Se
   0.8719505640342987    0.3689667729302488    0.8695885497963948 Se
   0.8642681662503204    0.1328454292288994    0.1358635247780933 Se
   0.6332885178346713    0.8684419925648810    0.6341410030044443 Se
   0.6397186619900177    0.1328313130411591    0.3760429023190843 Se
   0.8754587969920158    0.8593892859459389    0.8539935990520694 Se
   0.8861892781294636    0.6184955463739714    0.1200860021721679 Se
   0.1265691629370548    0.8825979427316393    0.6206963965952235 Se
   0.1031096897784231    0.6188921050245184    0.8777849108436597 Se
   0.8715317196014394    0.8980299258554327    0.3915448515674967 Se
   0.8694230172478704    0.6314748453852197    0.6276852818169424 Se
   0.6455775160065360    0.3557699658346502    0.1245975321443147 Se
   0.6358766508596279    0.6340136616754759    0.8683464387720953 Se
   0.8816866869631906    0.3621677121884462    0.3705197522224363 Se
