Mg7 Sc16 Se32
1.0
  11.1003847944368736    0.0000000000000000    0.0000000000000000
   0.0000000000000000   11.1003847944368736    0.0000000000000000
  -0.0000000000000000   -0.0000000000000000   11.1003847944368736
Mg Sc Se
7 16 32
direct
   0.4942415967708100    0.0020738717404069    0.5016837584022605 Mg
   0.2500431414881314    0.7499193328072546    0.7500963653299672 Mg
   0.4996927493560863    0.4994585932680423    0.0010288198522187 Mg
   0.7464437003177278    0.2510877950851167    0.7537554842470775 Mg
   0.2285911671584662    0.2799992750566796    0.2644031023444747 Mg
   0.7497262330207598    0.7490694476111914    0.2483112352901727 Mg
   0.9990385262349125    0.5027862456478027    0.4977436575630255 Mg
   0.1253285473509622    0.8751227998389508    0.3748777243472547 Sc
   0.3739742076808775    0.1246803054003888    0.8744045800973700 Sc
   0.3778433828862237    0.3793509236543109    0.6247260991472069 Sc
   0.1302682321032354    0.1274941931069700    0.6232137815979830 Sc
   0.1251416165831530    0.3704742523430808    0.8725983937730972 Sc
   0.3767533801421473    0.6218197269333599    0.3724536466958908 Sc
   0.3720213137059277    0.8736000246783654    0.1228940956818058 Sc
   0.1271487402221220    0.6268652446108407    0.1187728975708027 Sc
   0.6255061597840520    0.8726161610877254    0.8748888822250502 Sc
   0.8752736980826498    0.1248581240659430    0.3750993189329123 Sc
   0.8759625124783436    0.3728577746148046    0.1205445498150052 Sc
   0.6256661526587745    0.1273184624803846    0.1257394878617576 Sc
   0.6300376554098304    0.3756236394647149    0.3763205945581415 Sc
   0.8740671410666530    0.6233868131079427    0.8779160794765174 Sc
   0.8741022798287881    0.8762563754454519    0.6239932327794361 Sc
   0.6249360390170058    0.6249610745571146    0.6250411918168363 Sc
   0.3807777303844589    0.1172514025265512    0.1171997822312494 Se
   0.6126430364780964    0.3795628538814689    0.6170730238078861 Se
   0.6197711491394358    0.1173774312128665    0.8795048451076860 Se
   0.3856282827513230    0.3793896995108395    0.3798381357138571 Se
   0.3665958005140860    0.1328895295356176    0.6331114672935004 Se
   0.1314524912641102    0.8617246511260026    0.1316505231447750 Se
   0.1362620962252683    0.1269103387517787    0.8668059017495354 Se
   0.3675815732664382    0.8681094945521278    0.3666922376803687 Se
   0.3850281016807687    0.6151345785089022    0.6180808535825703 Se
   0.6104322036858761    0.8813156926838167    0.1153440506851073 Se
   0.6181755491678278    0.6182368414743652    0.3858016010007818 Se
   0.3827707957396408    0.8829718609817457    0.8828814073223007 Se
   0.3673242646095515    0.6310051804013186    0.1306433234565797 Se
   0.1361031825572813    0.3668949891644187    0.6316715409934027 Se
   0.1353300099233495    0.6386250935972890    0.3668658781782838 Se
   0.3723261981030797    0.3640742703059958    0.8657994792000108 Se
   0.8780865845002316    0.1147837633933462    0.6170370855758615 Se
   0.1241851913579086    0.3821031869729610    0.1183156624514185 Se
   0.1132366351089449    0.1118040052861684    0.3853779263759652 Se
   0.8884156548551175    0.3855475102766998    0.8801564976291743 Se
   0.8682026794782197    0.1354284609945869    0.1310602581961093 Se
   0.6329064329797383    0.8660081852879358    0.6295288477700772 Se
   0.6342184447109210    0.1325322995017412    0.3678401168973223 Se
   0.8721266876839573    0.8705525674828899    0.8663139030205850 Se
   0.8861082191502898    0.6163274678721278    0.1138866468568151 Se
   0.1170545876882180    0.8830731438461379    0.6170769748173643 Se
   0.1182383072807033    0.6112784612661931    0.8847527751367255 Se
   0.8873988360254134    0.8792319750739814    0.3824365392231790 Se
   0.8691108242340218    0.6379937620779088    0.6304394534746535 Se
   0.6331241546414849    0.3643562727218687    0.1378700772293787 Se
   0.6333933820592946    0.6320831436040185    0.8710839517135203 Se
   0.8657644382930230    0.3674034668981480    0.3599491204653028 Se
