Mg7 Sc16 Se32
1.0
  11.1003847944368736    0.0000000000000000    0.0000000000000000
   0.0000000000000000   11.1003847944368736    0.0000000000000000
  -0.0000000000000000   -0.0000000000000000   11.1003847944368736
Mg Sc Se
7 16 32
direct
   0.5015075270469561    0.9949082039569054    0.5003177818906028 Mg
   0.2481499043684763    0.7276698273836788    0.7431220272335083 Mg
   0.4995186347348359    0.4773455693129313    0.9898432698161862 Mg
   0.7585293322526667    0.2522016592012286    0.7438312520606805 Mg
   0.0071177810783925    0.0093203924871134    0.9942917065694526 Mg
   0.7627602561349544    0.7640059474873075    0.2668535096456509 Mg
   0.1029930506853114    0.3714714311213733    0.2948156589657832 Mg
   0.1306523598679011    0.8820264754287244    0.3756972669321297 Sc
   0.3752254981708670    0.1248376372645237    0.8781583829427358 Sc
   0.3642094330558601    0.3716823108002011    0.6159811652917488 Sc
   0.1108773745403901    0.1253793275348701    0.6058183296808599 Sc
   0.1212508917031662    0.3710301809407702    0.8744543408356865 Sc
   0.3725101251861536    0.6226512176175202    0.3665870136687280 Sc
   0.3748933243283753    0.8756152365571908    0.1243147897315337 Sc
   0.1341354002470311    0.6339285014783196    0.1242990418892779 Sc
   0.6268808109134826    0.8743040089439229    0.8754671254473043 Sc
   0.8852880598646495    0.1297131631762087    0.3716881110301140 Sc
   0.8672061361838410    0.3781810400305008    0.1110326278432952 Sc
   0.6316681081562038    0.1344370243248731    0.1208346795794944 Sc
   0.6254298078846453    0.3753748658651300    0.3747939410922986 Sc
   0.8574045411921580    0.6239011935409188    0.8564033646769975 Sc
   0.8577052270218394    0.8889044671011390    0.6151885311864926 Sc
   0.6334242513956371    0.6304487015787330    0.6328426299325774 Sc
   0.3779611359890894    0.1243794046320085    0.1056720707614863 Se
   0.6126309830557758    0.3814063945441422    0.6174924799169867 Se
   0.6173119841881022    0.1094456885088790    0.8825184811759287 Se
   0.3834579024201279    0.3811601936723533    0.3827035239053639 Se
   0.3719406953620288    0.1330208154286645    0.6300046011435130 Se
   0.1433765097800085    0.8852757735395836    0.1289211668533250 Se
   0.1340447278886784    0.1329265895439052    0.8625784159382388 Se
   0.3635987733975383    0.8653581665819691    0.3707919754569676 Se
   0.3902270281352406    0.6188495518015528    0.6183575257522568 Se
   0.6134894302892135    0.8678573985711567    0.1293652078177568 Se
   0.6235876956888177    0.6348758661977193    0.3790788515321993 Se
   0.3832860802549284    0.8833471825163047    0.8816227385960277 Se
   0.3743122582564329    0.6327500925535423    0.1130558372706864 Se
   0.1330212425374843    0.3670621357904708    0.6324465612435592 Se
   0.1333919618875198    0.6244901079125236    0.3616853534607248 Se
   0.3682415558970596    0.3692354158701095    0.8465384530724644 Se
   0.8834456070246450    0.1239271712987258    0.6099006834095347 Se
   0.1102697374949075    0.3764587400822117    0.1227545033625901 Se
   0.1172771343440108    0.1203264580195193    0.3821181198934588 Se
   0.8834674745907982    0.3841869146908585    0.8839474207128240 Se
   0.8669360324297787    0.1330755790695748    0.1389929526931406 Se
   0.6315307921432582    0.8791931240422065    0.6254219150281968 Se
   0.6279600036109191    0.1310016233764423    0.3666368998077237 Se
   0.8733022190443195    0.8694148370567604    0.8763814837079071 Se
   0.8815623272886611    0.6146424745054642    0.1245300591031610 Se
   0.0988817461798659    0.8998102154939303    0.6138255455073716 Se
   0.1216961285041152    0.6145060727328560    0.8810289246945453 Se
   0.8795126983476766    0.8804830650167650    0.3850620249203160 Se
   0.8725623397964893    0.6218751688715995    0.6245092237257662 Se
   0.6333879713499674    0.3442346949890651    0.1236455945075750 Se
   0.6246732201807862    0.6340685397873000    0.8694325905181611 Se
   0.8611276251360889    0.3751947939743697    0.3836928940643242 Se
