Mg7 Sc16 Se32
1.0
  11.1003847944368736    0.0000000000000000    0.0000000000000000
   0.0000000000000000   11.1003847944368736    0.0000000000000000
  -0.0000000000000000   -0.0000000000000000   11.1003847944368736
Mg Sc Se
7 16 32
direct
   0.1697549243937355    0.2867064660832999    0.2201867127550979 Mg
   0.2490373496115749    0.7504707807628144    0.7497351837717824 Mg
   0.4976286936045261    0.5002727004893992    0.9979920989100735 Mg
   0.7513540688578412    0.2514176009543831    0.7496962519274872 Mg
   0.9991672336354327    0.9998265100296410    0.9996885925881043 Mg
   0.7541839543093516    0.7503829001745200    0.2496358532436977 Mg
   0.9996662389340761    0.4999985141529364    0.5008155268863217 Mg
   0.1242012861030839    0.8737781090576605    0.3747280467614031 Sc
   0.3725715097813371    0.1234472752727792    0.8727897240589371 Sc
   0.3721748185963452    0.3748073433790984    0.6241092306822817 Sc
   0.1248521397515267    0.1244617511368813    0.6265535240510092 Sc
   0.1252274570356038    0.3748095832175274    0.8751245659845077 Sc
   0.3768169129796638    0.6220249277879146    0.3770191225883641 Sc
   0.3741534018843139    0.8767538279338798    0.1250094635431446 Sc
   0.1249947341661141    0.6247457952577096    0.1249894657737692 Sc
   0.6276528312183832    0.8749028328148634    0.8749467472585946 Sc
   0.8731703325067264    0.1267297479026927    0.3784577471641187 Sc
   0.8782523751487624    0.3731517116694435    0.1271874771513099 Sc
   0.6249409557854494    0.1269904532236737    0.1263250163890854 Sc
   0.6250855403395178    0.3745925010995396    0.3753857474317905 Sc
   0.8752804767896676    0.6251955796691190    0.8754715447327458 Sc
   0.8751730490857416    0.8760894141538542    0.6267983218616592 Sc
   0.6236090552072332    0.6258989155856911    0.6270487615327400 Sc
   0.3828295150202815    0.1174476737621382    0.1163578715698809 Se
   0.6164183228783485    0.3823467421314013    0.6153105451395751 Se
   0.6174503075068707    0.1171518136069623    0.8826245847616299 Se
   0.3829029188582751    0.3829673662100697    0.3828422183685816 Se
   0.3685825958113301    0.1339424119537012    0.6320205587414618 Se
   0.1330499660904560    0.8671416936340314    0.1331025340282621 Se
   0.1339439886567817    0.1369074697888736    0.8659287356190594 Se
   0.3661635319223047    0.8636394571352655    0.3676355132240211 Se
   0.3844148711402897    0.6163984286723381    0.6174041629135432 Se
   0.6172137434002340    0.8845121848378766    0.1201594080120326 Se
   0.6177061555655624    0.6170212798657653    0.3869604684983431 Se
   0.3851566612407329    0.8822112918367037    0.8814791627232849 Se
   0.3660108667645898    0.6339642696873220    0.1326034516657481 Se
   0.1322226754215163    0.3670419040401951    0.6311773798947604 Se
   0.1336003581333885    0.6338255135453595    0.3675235373583883 Se
   0.3666180303792744    0.3690161961540611    0.8632553229508844 Se
   0.8851140800990183    0.1181932070084835    0.6170376199146936 Se
   0.1181359060337178    0.3801459970788990    0.1158133774872633 Se
   0.1183122497578622    0.1175161530002862    0.3835822316000920 Se
   0.8862549634762685    0.3806943304547769    0.8844873033028531 Se
   0.8670947307926904    0.1362110514531135    0.1330182010580352 Se
   0.6328289888783143    0.8671205481717649    0.6332706962001695 Se
   0.6353224379611397    0.1351905861329101    0.3657884094052912 Se
   0.8652473214700064    0.8674261930098347    0.8646248655666424 Se
   0.8836177499109890    0.6159104442996366    0.1193542616606565 Se
   0.1172495427615681    0.8851745528992635    0.6173916107414122 Se
   0.1171645770883041    0.6162348811213811    0.8865873536762138 Se
   0.8832501017438550    0.8822512151406243    0.3832052337201526 Se
   0.8676230858723770    0.6326160090062612    0.6330204591755908 Se
   0.6346752770840979    0.3682184809085891    0.1315353756204533 Se
   0.6306402283379834    0.6317503000524548    0.8639890494301301 Se
   0.8684489517889546    0.3634859198387616    0.3667614244916730 Se
