Mg7 Sc16 Se32
1.0
  11.1003847944368736    0.0000000000000000    0.0000000000000000
   0.0000000000000000   11.1003847944368736    0.0000000000000000
  -0.0000000000000000   -0.0000000000000000   11.1003847944368736
Mg Sc Se
7 16 32
direct
   0.5032513913725037    0.9994616560424163    0.4951492995029665 Mg
   0.2393846761365331    0.7649872710046343    0.7510968249857304 Mg
   0.4938499355037341    0.5011258068123550    0.0225794228555226 Mg
   0.7603038322799289    0.2454492734180085    0.7667528253335840 Mg
   0.0006197227913630    0.0055901660849071    0.9992678447380091 Mg
   0.7508527332840781    0.7534929717506009    0.2495883921856878 Mg
   0.1480436823073371    0.3690353617992714    0.3521598465991193 Mg
   0.1406559343421459    0.8691558055469072    0.3751040877855967 Sc
   0.3657265728325843    0.1304500195648075    0.8851030473093762 Sc
   0.3698247602474352    0.3641138135314088    0.6217355929416398 Sc
   0.1231235606159714    0.1230378930241254    0.6272044062281253 Sc
   0.1321005815273338    0.3764628789088941    0.8767320823858898 Sc
   0.3749904998894013    0.6244445048269400    0.3745786125518157 Sc
   0.3750665444763412    0.8749430144938334    0.1250217417230317 Sc
   0.1228266105845627    0.6242271171820819    0.1311200788520009 Sc
   0.6203002412972930    0.8635847238964500    0.8869425954054154 Sc
   0.8677140913243555    0.1323183440593172    0.3663149170042075 Sc
   0.8859644942996467    0.3915189429276693    0.1336309908770289 Sc
   0.6253244917827941    0.1297028004972349    0.1248055942735809 Sc
   0.6244113191236282    0.3756068465119043    0.3749221858272734 Sc
   0.8640444254328349    0.6411421868762596    0.8760942462622445 Sc
   0.8738105393751985    0.8758395147260354    0.6265894558389572 Sc
   0.6144573997469450    0.6310378722527457    0.6366323474615673 Sc
   0.3841356756768112    0.1178844551474016    0.1231272559152447 Se
   0.6133992009179574    0.3767906092470856    0.6114841804144286 Se
   0.6274809149638447    0.1127234847493971    0.8644817022922741 Se
   0.3822415584599704    0.3858609594222809    0.3786409408345618 Se
   0.3583439709909936    0.1314805831651124    0.6224458288376786 Se
   0.1344459780672499    0.8549979518748470    0.1318739299701577 Se
   0.1413753924993981    0.1468818709847456    0.8697298665024314 Se
   0.3667211218500875    0.8742082241182793    0.3640961627853584 Se
   0.3803077391027134    0.6154545040650956    0.6156837642492020 Se
   0.6117083269216204    0.8963395651366933    0.1125760351434066 Se
   0.6220514133298211    0.6184930833282778    0.3883808209547451 Se
   0.3910593244890294    0.8804052277289562    0.8875614220405594 Se
   0.3642209670529787    0.6527995450805483    0.1295408476674490 Se
   0.1312219869945477    0.3755942458823782    0.6404472800425450 Se
   0.1171444302027878    0.6355742113766348    0.3756786251804280 Se
   0.3773723862807111    0.3728596075465891    0.8659314439981090 Se
   0.8957691621213646    0.1288022088740350    0.6232069517507846 Se
   0.1206804932322344    0.3740968710528926    0.1119153906651326 Se
   0.1155016135357352    0.1198012977440675    0.3847819613918025 Se
   0.8825357343568262    0.3834950481424972    0.8817453999314118 Se
   0.8487866724465872    0.1389554586526152    0.1388294528132372 Se
   0.6161285457708215    0.8679057540063575    0.6355219372709834 Se
   0.6242079816243872    0.1267676503530009    0.3647861131022220 Se
   0.8746512096121885    0.8548876446128800    0.8541179906210252 Se
   0.8818546411519130    0.6180953710704327    0.1172771899479732 Se
   0.1256228325516401    0.8765341533729215    0.6111828878508746 Se
   0.1197465435857667    0.6145428683425338    0.8796491096772695 Se
   0.8717946344446450    0.8771343839536831    0.3778124917345465 Se
   0.8557490973091507    0.6175722723039643    0.6221514463518898 Se
   0.6318548229062775    0.3655006512909352    0.1327340905151280 Se
   0.6426954118196961    0.6339506926916926    0.8792688917543208 Se
   0.8636475402474757    0.3627402382588098    0.3665057523706754 Se
