Mg7 Sc16 Se32
1.0
  11.1003847944368736    0.0000000000000000    0.0000000000000000
   0.0000000000000000   11.1003847944368736    0.0000000000000000
  -0.0000000000000000   -0.0000000000000000   11.1003847944368736
Mg Sc Se
7 16 32
direct
   0.5040559617405288    0.9956903101446847    0.4960398908465689 Mg
   0.2508982434655229    0.6835744108756628    0.6748364763109705 Mg
   0.4988232447375356    0.5000865865078209    0.9916239365537849 Mg
   0.7537297494895944    0.2536090763447691    0.7432301049984938 Mg
   0.9971419613849442    0.0036874374243271    0.9851189691664073 Mg
   0.7511236012432134    0.7535939468161160    0.2504087307549320 Mg
   0.0039708958008717    0.4948954581950166    0.5002190745956958 Mg
   0.1296000978575948    0.8786041840952867    0.3940917736919124 Sc
   0.3750700585453390    0.1277602051396083    0.8731816945969937 Sc
   0.3837048287142573    0.3927631994178057    0.6283706702461364 Sc
   0.1295292145759152    0.1243574459560607    0.6372059229848771 Sc
   0.1212731817484897    0.3747971393399182    0.8733504267650388 Sc
   0.3688110903815496    0.6137165955442614    0.3752844235472089 Sc
   0.3687973592044707    0.8770217982234693    0.1302190650021835 Sc
   0.1363154523450256    0.6102110214527685    0.1168831940732585 Sc
   0.6254978881782877    0.8722449214555451    0.8637841744222090 Sc
   0.8700582082230307    0.1258604503577689    0.3791352805308474 Sc
   0.8772827574841704    0.3681891258436565    0.1301036031985101 Sc
   0.6265375215930389    0.1151887667362021    0.1218988098334430 Sc
   0.6265499885988783    0.3677483896121498    0.3836649404736353 Sc
   0.8725130586853161    0.6299232750359500    0.8566820819307964 Sc
   0.8777459109225955    0.8797543558724259    0.6156706176982100 Sc
   0.6076728115684470    0.6262392797216597    0.6213280311682489 Sc
   0.3797912872851374    0.1130199104752759    0.1167308278663297 Se
   0.6160820660886019    0.3831815678306483    0.6171138992614238 Se
   0.6122990704049636    0.1207139097497636    0.8893167222158457 Se
   0.3794537186911805    0.3659568767208340    0.3882903065452974 Se
   0.3708862515103529    0.1232963184263747    0.6169613191986233 Se
   0.1354323102186522    0.8775890112773631    0.1497462485847212 Se
   0.1265730250963734    0.1304533074404263    0.8477845486958240 Se
   0.3671228528144786    0.8671231817175178    0.3671177246246847 Se
   0.3930220831797303    0.6183887890216818    0.6278483657900089 Se
   0.6007162754888092    0.8785528784504802    0.1230350814308833 Se
   0.6153517226401306    0.6117920770265070    0.3647655285676865 Se
   0.3764968306741109    0.8696155794287057    0.8820899753702405 Se
   0.3674923244169125    0.6306247049611199    0.1414993697132688 Se
   0.1382027926848013    0.3511235215456031    0.6337482342786471 Se
   0.1357793759157117    0.6291787448826855    0.3786570508788258 Se
   0.3602769592244383    0.3650289022012590    0.8737537015807958 Se
   0.8899367092781745    0.1309505839364713    0.6250153042363694 Se
   0.1205009457567466    0.3815009822862329    0.1203462188038198 Se
   0.1237428334307843    0.1128387323336758    0.3839852704567120 Se
   0.8906526658084680    0.3784423843982950    0.8980156478670767 Se
   0.8611161398953348    0.1286314437100135    0.1371714307137875 Se
   0.6287327972854466    0.8647574572574884    0.6364439192088984 Se
   0.6256462212888437    0.1398462002156767    0.3687488751268200 Se
   0.8639529202964479    0.8641827378379902    0.8653868366126606 Se
   0.8792255437875715    0.6320492971410506    0.1155730618298729 Se
   0.1169703733895299    0.8829346214996671    0.6170873063333189 Se
   0.1133478044128887    0.6162112803183126    0.8763901650012174 Se
   0.8850353555934433    0.8844176242982394    0.3924164552972647 Se
   0.8588167637280093    0.6265676623447041    0.6373127527748720 Se
   0.6336670288780226    0.3705688809368906    0.1340284998777538 Se
   0.6267318647449026    0.6309908555503763    0.8656796526919917 Se
   0.8700247050712940    0.3653326754870073    0.3680613485302084 Se
