Mg7 Sc16 Se32
1.0
  11.1003847944368736    0.0000000000000000    0.0000000000000000
   0.0000000000000000   11.1003847944368736    0.0000000000000000
  -0.0000000000000000   -0.0000000000000000   11.1003847944368736
Mg Sc Se
7 16 32
direct
   0.4976915236013671    0.0081857409179987    0.4978257099305124 Mg
   0.2526586844816843    0.7428544904672194    0.7548889184552720 Mg
   0.4996675889035400    0.5009601312462754    0.0013056319269725 Mg
   0.7554500982432374    0.2503247603189158    0.7514876909780382 Mg
   0.9950978486507472    0.0108561512942610    0.9949798347678011 Mg
   0.7435560056366129    0.7589047826712879    0.2503254937527046 Mg
   0.9962420691242582    0.4998585317225560    0.4977849846497563 Mg
   0.1331073422354906    0.8784735747292399    0.3690043457071038 Sc
   0.3744177151214088    0.1186360380501875    0.8748227085343320 Sc
   0.3775295658475711    0.3835350242898711    0.6150063316867354 Sc
   0.1249937153678840    0.1250408775947981    0.6255012934552553 Sc
   0.1256433561796750    0.3665904843736215    0.8678188811462842 Sc
   0.3751040264915443    0.6248078095257648    0.3749068899235507 Sc
   0.3749068024770050    0.8751228146965285    0.1251208684495477 Sc
   0.1310158402619576    0.6243637578520224    0.1318825938797603 Sc
   0.6286385381324657    0.8859300330901847    0.8766659202974725 Sc
   0.8756697344531170    0.1237717184284708    0.3677281410769714 Sc
   0.8742819242358091    0.3813617280472390    0.1406396557434321 Sc
   0.6240628671801838    0.1250473410507481    0.1258924722938665 Sc
   0.6250561360162875    0.3776804328110097    0.3849247396778255 Sc
   0.8765425825998500    0.6362065179001768    0.8842258378670399 Sc
   0.8760366912964536    0.8757989071178017    0.6242247850022850 Sc
   0.6354878483868264    0.6163619030693338    0.6195905789507378 Sc
   0.3933051009673375    0.1191574834832074    0.1155354930570761 Se
   0.6212091482515696    0.3916371260367209    0.6130787524270357 Se
   0.6291125956482920    0.1214478714194086    0.8774401113391294 Se
   0.3834137124204202    0.3896928705038556    0.3841727240484228 Se
   0.3696599045502977    0.1345243803945400    0.6330873408945659 Se
   0.1450916391025357    0.8745655898060246    0.1365108494536473 Se
   0.1301162180449950    0.1308942309483774    0.8701460424741814 Se
   0.3714984233596872    0.8666497095185738    0.3689265220492098 Se
   0.3806487090055087    0.6160201889045495    0.6193204349690581 Se
   0.6072305942101528    0.8819677796977484    0.1129057575937281 Se
   0.6216347017939958    0.6095444399134867    0.3797080270170123 Se
   0.3832838142576641    0.8845292698038811    0.8938492717822023 Se
   0.3676625675047523    0.6350168874816543    0.1319925697880652 Se
   0.1337261450730996    0.3674678038440697    0.6344734712440588 Se
   0.1333810446136097    0.6312979903616456    0.3683369858881227 Se
   0.3664112464218598    0.3646894435125603    0.8681621013842746 Se
   0.8932901852090884    0.1063475811503158    0.6150567167468213 Se
   0.1123465802778272    0.3827283140945402    0.1231983395304199 Se
   0.1215266762122106    0.1147909513440120    0.3762591023847247 Se
   0.8829377504696329    0.3828798054363277    0.8827344745261598 Se
   0.8527954391623427    0.1367705534814278    0.1331403945772673 Se
   0.6260659232670398    0.8590907119124264    0.6360656496144550 Se
   0.6328569415506374    0.1328679273410397    0.3671082679849484 Se
   0.8613142703183381    0.8787769261330205    0.8571446417177503 Se
   0.8854988977340413    0.6216513210932012    0.1154513420891056 Se
   0.1190108878769392    0.8810012577540680    0.6238576405160028 Se
   0.1169716497026106    0.6158385815712036    0.8794676042071173 Se
   0.8732699496959277    0.8897618436848135    0.3912010548742502 Se
   0.8602627267382413    0.6224813056268599    0.6326852969254818 Se
   0.6404957718797138    0.3732295225385643    0.1315954825327389 Se
   0.6346554193035481    0.6339337483686320    0.8671052413494367 Se
   0.8732543063360387    0.3800225684241884    0.3708791808795240 Se
