Mg7 Sc16 Se32
1.0
  11.1003847944368736    0.0000000000000000    0.0000000000000000
   0.0000000000000000   11.1003847944368736    0.0000000000000000
  -0.0000000000000000   -0.0000000000000000   11.1003847944368736
Mg Sc Se
7 16 32
direct
   0.4993653310714271    0.9987938851099128    0.5020211377698934 Mg
   0.2571495172700243    0.7380852408401636    0.7443875486787142 Mg
   0.4978954439536851    0.5125537263596412    0.9842772478527042 Mg
   0.7522898641402690    0.2576828720718049    0.7464996175064866 Mg
   0.9858431361689043    0.9988438973041632    0.0049315768606460 Mg
   0.7574070829483271    0.7528378648921640    0.2452050469741514 Mg
   0.0000788999020785    0.4998757079660336    0.5004952096657558 Mg
   0.1204052459757074    0.8730604677308487    0.3799992493153134 Sc
   0.3710981652163612    0.1292892534777164    0.8699173697197959 Sc
   0.3789812377818860    0.3619799876427356    0.6320007161777169 Sc
   0.1234540318966047    0.1221686852410924    0.6218309408935359 Sc
   0.1257696837456424    0.3724166732629665    0.8741861161564918 Sc
   0.3755885666394406    0.6234676953964031    0.3770525230243710 Sc
   0.3776443363957350    0.8583777312617678    0.1275380404261100 Sc
   0.1255418097351944    0.6269342425647942    0.1253530508279072 Sc
   0.6235854534717448    0.8660031938505632    0.8696589013524670 Sc
   0.8683026985090250    0.1201295154141421    0.3662654837022336 Sc
   0.8685885275376751    0.3711823808630146    0.1172742984311054 Sc
   0.6340296034872276    0.1343567321002847    0.1321404304279700 Sc
   0.6239175822304647    0.3834423934440666    0.3699433118674290 Sc
   0.8773354987495310    0.6255665209812649    0.8733102986979848 Sc
   0.8769328899605140    0.8741153974473355    0.6070655285986533 Sc
   0.6212047569991292    0.6341471020308245    0.6220590192079833 Sc
   0.3826301361264567    0.1162553442946078    0.1116966893038258 Se
   0.6144057202008306    0.3827719908700932    0.6076615044332354 Se
   0.6184627498697569    0.1191121348842115    0.8817845156472436 Se
   0.3761484911809717    0.3848005729510160    0.3733633049332886 Se
   0.3652622802862496    0.1353545025529013    0.6349977122890389 Se
   0.1249306709387937    0.8507833432207698    0.1232819494544508 Se
   0.1306887069876453    0.1218465119014151    0.8755274644996481 Se
   0.3664660315345211    0.8562990967945359    0.3611886907206538 Se
   0.3860615324996624    0.6162142808865925    0.6105387512735014 Se
   0.6157210042673595    0.8890325358542448    0.1162544677400819 Se
   0.6324703083816757    0.6084179892748993    0.3843243271984107 Se
   0.3802341810952152    0.8805557493041462    0.8824236026255118 Se
   0.3695067978195183    0.6328422537647291    0.1353384347134590 Se
   0.1321631979915107    0.3674177229670327    0.6310827675659639 Se
   0.1427897062547054    0.6364767066755549    0.3732639520949602 Se
   0.3840723095280514    0.3741215579433004    0.8640870099456913 Se
   0.8797446402442768    0.1012567127805101    0.6267168836324378 Se
   0.1199836005679979    0.3943585252779656    0.1203134698395800 Se
   0.1167149407636185    0.1205640040532747    0.3809963145078060 Se
   0.8805163159544207    0.3807796643007793    0.8931796730739240 Se
   0.8687497615214571    0.1361889881952661    0.1321054825432296 Se
   0.6280943096113455    0.8763015826796346    0.6228617427835139 Se
   0.6369299593780763    0.1338971280093550    0.3713912755695594 Se
   0.8537702499825901    0.8723873922310210    0.8814884450032415 Se
   0.8779632667724099    0.6131246649276576    0.1148532988893027 Se
   0.1114238414617234    0.8840692563607986    0.6177431408454283 Se
   0.1171547010701873    0.6251575883358786    0.8808295381061224 Se
   0.8819153554877022    0.8823616049567276    0.3827436575338568 Se
   0.8663112415700487    0.6322971160746321    0.6327024025035750 Se
   0.6402060575967300    0.3665506694621596    0.1340914294867312 Se
   0.6439407663329616    0.6245387945811900    0.8673675221631253 Se
   0.8761635681379171    0.3805054696233706    0.3719991829253751 Se
