Mg7 Sc16 Se32
1.0
  11.1003847944368736    0.0000000000000000    0.0000000000000000
   0.0000000000000000   11.1003847944368736    0.0000000000000000
  -0.0000000000000000   -0.0000000000000000   11.1003847944368736
Mg Sc Se
7 16 32
direct
   0.4958473666106095    0.0067446115794850    0.4873509087476167 Mg
   0.2408666472924707    0.7354141561700452    0.7418851176701363 Mg
   0.4971480071776012    0.4940044628450653    0.0023516677221747 Mg
   0.7497905481105256    0.2504795134649940    0.7505887809463402 Mg
   0.0647498940807360    0.0680080912657081    0.0790896193479815 Mg
   0.7499349141788496    0.7500160046823895    0.2499560543960063 Mg
   0.0005137541396239    0.4867659061189901    0.4905044647457660 Mg
   0.1333003804747829    0.8890547636066518    0.3605459213009851 Sc
   0.3942407310003373    0.1199674902220985    0.8703147180012683 Sc
   0.3742291350061915    0.3733685801379948    0.6222789877765100 Sc
   0.1270011778392379    0.0987705110511746    0.6216085782683846 Sc
   0.1279905324837803    0.3698982700192077    0.9006445814717696 Sc
   0.3667567901638661    0.6282634198546482    0.3519842028086834 Sc
   0.3742506736003239    0.8749007144985561    0.1236227971670486 Sc
   0.1259211149979090    0.6077773189077682    0.1205009104229687 Sc
   0.6263864828585703    0.8699058906306967    0.8665167566498414 Sc
   0.8738370197190944    0.1253597499274415    0.3781370089837932 Sc
   0.8684527370621831    0.3877289600002208    0.1097413507309282 Sc
   0.6251409862111383    0.1284070469557993    0.1270279157518118 Sc
   0.6248562628659433    0.3786785269202994    0.3755526469193862 Sc
   0.8876406887036469    0.6243278201687463    0.8755328232047519 Sc
   0.8750085977289018    0.8749601153955882    0.6247957018617554 Sc
   0.6166547937677451    0.6369035516085267    0.6303532745712056 Sc
   0.3702031599966161    0.1220711441308831    0.1072176428771001 Se
   0.6103909909350900    0.3848827747833055    0.6146597538364739 Se
   0.6141115563845754    0.1229530259847833    0.8811683730569247 Se
   0.3842461546138383    0.3807741678894514    0.3811805822943843 Se
   0.3520148743460119    0.1275671385477354    0.6246562059192414 Se
   0.1392482462454590    0.8664975034485937    0.1303634578592116 Se
   0.1316172678389616    0.1272061079698704    0.8632797740145379 Se
   0.3591621625483180    0.8649668774491560    0.3520133608629925 Se
   0.3757808354675769    0.6374851666188872    0.6244552648811945 Se
   0.6051613063011337    0.8923378538737711    0.1051197588664442 Se
   0.6149867384731802    0.6378842164641967    0.3898903315236804 Se
   0.3686438569325284    0.8797681702445420    0.8962686601666701 Se
   0.3683281134642493    0.6410742745113571    0.1353054722539065 Se
   0.1324109448418274    0.3680554681771759    0.6312310719109707 Se
   0.1251235682313644    0.6400217375312967    0.3704353531573045 Se
   0.3804247000453458    0.3597054839329606    0.8597841905470411 Se
   0.8889294483539176    0.1056357807771239    0.6046465280362685 Se
   0.1151505204449130    0.3862793803599680    0.1001586537006194 Se
   0.1308802089547286    0.1079603654880704    0.3834850518628536 Se
   0.8738898165115485    0.3905293977694597    0.8986739716709093 Se
   0.8777052125081773    0.1207169897720282    0.1338519874589906 Se
   0.6405127363997554    0.8602742716566335    0.6332794203964960 Se
   0.6432089348526793    0.1443245936544009    0.3871296140755738 Se
   0.8600738989442818    0.8779931540068899    0.8724587684675091 Se
   0.8816479774860406    0.6305398456137613    0.1029890426842207 Se
   0.1130128660150795    0.8835010819826409    0.6152032172478379 Se
   0.1231562360962787    0.6232704708601394    0.8861474484860339 Se
   0.8912405802246982    0.8711140861805625    0.3731420796161599 Se
   0.8706056813557438    0.6493223216061430    0.6235052833191786 Se
   0.6209009328042513    0.3645599701494123    0.1352312411356474 Se
   0.6317508848229852    0.6309054077608923    0.8604827589745520 Se
   0.8585026557465748    0.3678770369448558    0.3647947190161435 Se
