Mg7 Sc16 Se32
1.0
  11.1003847944368736    0.0000000000000000    0.0000000000000000
   0.0000000000000000   11.1003847944368736    0.0000000000000000
  -0.0000000000000000   -0.0000000000000000   11.1003847944368736
Mg Sc Se
7 16 32
direct
   0.4987553421048602    0.9923372079738876    0.5115966402352270 Mg
   0.2465550840401423    0.7506525956104898    0.7535706551186891 Mg
   0.4952634101377057    0.4989984234319823    0.0047143989815119 Mg
   0.7580995377109994    0.2525456304289193    0.7613542792424806 Mg
   0.1415418238614176    0.1240267058493382    0.1519680931727966 Mg
   0.7347244530529354    0.7533343383226924    0.2448643139184400 Mg
   0.0086961348290891    0.5056070055733708    0.5104909759490743 Mg
   0.1146838008592353    0.8702089123255001    0.3873409566449459 Sc
   0.3820318238669433    0.1146870606050579    0.8854264358172174 Sc
   0.3737654461812564    0.3699145223924540    0.6146532338733428 Sc
   0.1312870765396210    0.1343983480129284    0.6339349740459790 Sc
   0.1235673889086472    0.3832367416650305    0.8802395958095345 Sc
   0.3765856492077341    0.6261353167310815    0.3757227249145925 Sc
   0.3747236712139502    0.8738529929403732    0.1255371321364072 Sc
   0.1294708695956135    0.6249345598462953    0.1256530612655241 Sc
   0.6212945767813879    0.8660097454402533    0.8891025914017083 Sc
   0.8769880927425070    0.1251726457178683    0.3798402379284558 Sc
   0.8781556802333786    0.3755955122354731    0.1261324875912005 Sc
   0.6145581883486784    0.1312311658823337    0.1282585145124406 Sc
   0.6231090309096207    0.3716468821154283    0.3695557328009541 Sc
   0.8767014065509580    0.6306247462504287    0.8788775569765555 Sc
   0.8756177491407559    0.8682762256284402    0.6254021280757627 Sc
   0.6299075866168116    0.6321599591016652    0.6247947208596724 Sc
   0.3938102695143841    0.1183544670040651    0.1188151527676892 Se
   0.6163946402841251    0.3850006381787450    0.6174504921286935 Se
   0.6120416589456996    0.1130600788806279    0.8740471064300216 Se
   0.3863057149941450    0.3759068398704623    0.3858513678342017 Se
   0.3711491219176009    0.1412003317224669    0.6299718787225002 Se
   0.1233680973426043    0.8605709785892696    0.1444594109720328 Se
   0.1347785812656206    0.1383108759562726    0.8721882581749978 Se
   0.3739424848626928    0.8649617244955365    0.3697873843422169 Se
   0.3850997672821762    0.6209509663276770    0.6169166561812542 Se
   0.6154873575219284    0.8754639771044803    0.1257958491178936 Se
   0.6173429290197634    0.6269906940442975    0.3804988759938889 Se
   0.3878344969794046    0.8786667844405764    0.8818910920861429 Se
   0.3644991155962208    0.6386577686215061    0.1357353772161227 Se
   0.1323082240259229    0.3587990111363806    0.6306654027617360 Se
   0.1344539992890351    0.6389373444783434    0.3715270652667922 Se
   0.3720412763840273    0.3522105474356388    0.8728146484940459 Se
   0.8866818348077454    0.1234982248346018    0.6141209451713505 Se
   0.1248627518092990    0.3698995194354366    0.1218755268938348 Se
   0.1085170061757072    0.1057727587989314    0.3845896239280518 Se
   0.8792139912331117    0.3853527020897983    0.8666540289952978 Se
   0.8705167090243620    0.1460141665165206    0.1253076753947032 Se
   0.6329977780201860    0.8673590322313065    0.6335816139266508 Se
   0.6293428311529000    0.1330834519075591    0.3682850684444347 Se
   0.8633480870755690    0.8598197239832058    0.8569703066519746 Se
   0.8937063111853628    0.6249594409890218    0.1273814407232740 Se
   0.1146943779285111    0.8783186709099738    0.6115215895340901 Se
   0.1209512667245972    0.6178214158274434    0.8862532748708319 Se
   0.8909887599420500    0.8813682293796732    0.3822428984684332 Se
   0.8595830686230985    0.6341550835281046    0.6447230306348508 Se
   0.6340225607232961    0.3668969556260974    0.1311181649199965 Se
   0.6199286240283262    0.6311689660338604    0.8733779363018630 Se
   0.8780858930000505    0.3716731614173671    0.3705489253112297 Se
