Mg7 Sc16 Se32
1.0
  11.1003847944368736    0.0000000000000000    0.0000000000000000
   0.0000000000000000   11.1003847944368736    0.0000000000000000
  -0.0000000000000000   -0.0000000000000000   11.1003847944368736
Mg Sc Se
7 16 32
direct
   0.5024506612676540    0.9995071920902477    0.4991355259553970 Mg
   0.2507269895840987    0.7489897316030047    0.7464042276753640 Mg
   0.4985244493866261    0.5024588034600130    0.0019828942262712 Mg
   0.7465785957777671    0.2513500813223009    0.7513031785477863 Mg
   0.9985637325514379    0.0027845247443343    0.0005915562369269 Mg
   0.7512004957507925    0.7552717238374812    0.2503798532023067 Mg
   0.2168414829842325    0.2910633376985157    0.2826604606580999 Mg
   0.1307393207790949    0.8720520179615240    0.3739261184641641 Sc
   0.3742780943118422    0.1215909228814791    0.8742639328071394 Sc
   0.3731441276360639    0.3727255776206487    0.6257644230261097 Sc
   0.1283309209803009    0.1271621805939495    0.6264253126046617 Sc
   0.1252514981662692    0.3745184804925715    0.8760769781317832 Sc
   0.3748111947379648    0.6246130127501169    0.3748622148477097 Sc
   0.3715660213006535    0.8744656704832257    0.1261841995118428 Sc
   0.1286058578989482    0.6226513645493843    0.1248276520367433 Sc
   0.6227237168794844    0.8766815516145238    0.8748815762731416 Sc
   0.8747542174720180    0.1258349244469737    0.3764716147767685 Sc
   0.8800666461753821    0.3775261494637618    0.1257597479457647 Sc
   0.6254994880609208    0.1247109262522802    0.1250349424011043 Sc
   0.6202762762574364    0.3758582274749289    0.3804309976844187 Sc
   0.8730763043238108    0.6232120916723222    0.8718829599386317 Sc
   0.8754165741177637    0.8749213317798549    0.6253310367340484 Sc
   0.6241348543504281    0.6228243888727719    0.6241092948489091 Sc
   0.3811288851820219    0.1152365668205705    0.1174848753925745 Se
   0.6205322871335124    0.3850170346651371    0.6173531780185225 Se
   0.6185020754447237    0.1123660685121236    0.8852620426332098 Se
   0.3830813996485087    0.3841829200674057    0.3903627768634079 Se
   0.3616885132319786    0.1327482102257623    0.6337101395980371 Se
   0.1301388172773535    0.8667951053028001    0.1336006692170124 Se
   0.1332240322239890    0.1319795838144155    0.8690424254894848 Se
   0.3654287992281383    0.8679495556554998    0.3664234223156954 Se
   0.3806415219532877    0.6141470533348126    0.6229706236869607 Se
   0.6144051355980579    0.8831958866101339    0.1147497594993944 Se
   0.6164394284339969    0.6101838646241653    0.3811828306375525 Se
   0.3795451400750238    0.8789824732105902    0.8784477717865137 Se
   0.3658610379954674    0.6333602130201438    0.1335149208670444 Se
   0.1322561168920323    0.3711330063434721    0.6300448121814379 Se
   0.1323032678134862    0.6297806024526678    0.3741316985568271 Se
   0.3666640399226852    0.3664735039299937    0.8656792106565078 Se
   0.8845567960169914    0.1211273199522650    0.6176204453835653 Se
   0.1175644643086570    0.3813315110256281    0.1158754342328703 Se
   0.1172244399085119    0.1125992565912263    0.3875721859039836 Se
   0.8893655597023888    0.3815466431694297    0.8860468942546602 Se
   0.8660008426945501    0.1349078256995990    0.1297579103963450 Se
   0.6333447529140518    0.8684452490963072    0.6319222046643788 Se
   0.6277190164820753    0.1286626548357725    0.3637419346104697 Se
   0.8670070293791950    0.8674970972755993    0.8693725335319706 Se
   0.8827005586771939    0.6131742539592483    0.1168264159746566 Se
   0.1166962933959977    0.8877721411468282    0.6204297089177997 Se
   0.1162838202993298    0.6156982624451023    0.8860111066349118 Se
   0.8787313803545395    0.8817917020925351    0.3822536489109956 Se
   0.8622822787441354    0.6300742016223096    0.6372927708133669 Se
   0.6308745056515125    0.3658472471326992    0.1277107094755044 Se
   0.6337567208734480    0.6280283893984667    0.8705222825893426 Se
   0.8677351887994391    0.3666787717994190    0.3677662673661450 Se
