Mg7 Sc16 Se32
1.0
  11.1003847944368736    0.0000000000000000    0.0000000000000000
   0.0000000000000000   11.1003847944368736    0.0000000000000000
  -0.0000000000000000   -0.0000000000000000   11.1003847944368736
Mg Sc Se
7 16 32
direct
   0.4970776102887714    0.0004576636622139    0.4988222786994704 Mg
   0.2501178661500436    0.7485660940539307    0.7488072275141657 Mg
   0.2503230927561291    0.2493547692934423    0.2510472072486014 Mg
   0.7520073079059336    0.2458092849298654    0.7491810581877193 Mg
   0.0022630753560837    0.9987665228661838    0.0018656128206171 Mg
   0.7553467175612446    0.7424319529106829    0.2444429246574595 Mg
   0.9973417441348759    0.5023660834016929    0.5001478379608642 Mg
   0.1264800768307208    0.8672543372372107    0.3741894879182039 Sc
   0.3812840679279165    0.1256500249052617    0.8777270259931089 Sc
   0.3779900998963308    0.3743091590827642    0.6210081658506319 Sc
   0.1337613871170551    0.1213494874578735    0.6285621197536889 Sc
   0.1302211878380081    0.3712460488839648    0.8747725728219836 Sc
   0.3729471245541222    0.6251653662701593    0.3728899993054260 Sc
   0.3760428116223327    0.8755611244717749    0.1242378404293458 Sc
   0.1214810596154644    0.6344184613661326    0.1268681114846150 Sc
   0.6252289012423347    0.8752521987302228    0.8821661220526795 Sc
   0.8719378981287431    0.1287756884047061    0.3773962368014833 Sc
   0.8749485403169508    0.3739152462684560    0.1259403405980431 Sc
   0.6252735337135760    0.1185066776835437    0.1251805414591341 Sc
   0.6244822196967336    0.3756595717521447    0.3756872388806194 Sc
   0.8798506527692008    0.6184171593632569    0.8756426560062474 Sc
   0.8654759406784314    0.8783407196458212    0.6212903914384830 Sc
   0.6280634769861331    0.6179341027884925    0.6243872470181571 Sc
   0.3852587065841477    0.1132844418793302    0.1158343330379104 Se
   0.6176172143963050    0.3859339720617713    0.6161373262519347 Se
   0.6233722809508043    0.1115015063110458    0.8858311197379219 Se
   0.3825911542474134    0.3828751989922493    0.3833190422767230 Se
   0.3670653246340071    0.1329258911291767    0.6336602173816805 Se
   0.1378615480577724    0.8722525070007943    0.1275746627105519 Se
   0.1320912506906581    0.1346223685466596    0.8712952065878500 Se
   0.3625177440390046    0.8686899360476669    0.3648153711755315 Se
   0.3826016747492429    0.6181675462173986    0.6241754222930402 Se
   0.6093853694186198    0.8795208082231616    0.1206793009010248 Se
   0.6164591526899628    0.6151648410178998    0.3834667033128058 Se
   0.3835693105871399    0.8752986264714235    0.8808829533286751 Se
   0.3730210012345684    0.6353852132113437    0.1278181715936528 Se
   0.1277390962933299    0.3708266078582860    0.6401258448528754 Se
   0.1279172725315398    0.6286881085581609    0.3676030048227893 Se
   0.3632750407269597    0.3690643070345275    0.8671393047480042 Se
   0.8811445671158822    0.1177811869037409    0.6176410240173732 Se
   0.1212580645104245    0.3920465483320641    0.1146390116152171 Se
   0.1138792400297313    0.1190154548859969    0.3845481460373351 Se
   0.8794665949906766    0.3782670057689589    0.8829305489542020 Se
   0.8685961619969894    0.1348940123586010    0.1275300748898955 Se
   0.6299397269203109    0.8621925138666610    0.6317443485629411 Se
   0.6340138686247163    0.1299190367442643    0.3674923738772853 Se
   0.8652170837780746    0.8656792720710241    0.8690728070989788 Se
   0.8829879000254746    0.6171315589372013    0.1165121571449870 Se
   0.1164577167298015    0.8898929567770265    0.6157786201688554 Se
   0.1192136264582878    0.6262165099771376    0.8806347585331162 Se
   0.8871463061223761    0.8832466018840878    0.3824434096536154 Se
   0.8700717528151991    0.6387141635457384    0.6280364304929384 Se
   0.6334146473413396    0.3714688086997425    0.1323155227922966 Se
   0.6311650463739438    0.6380167026849765    0.8682014311027362 Se
   0.8624023363978026    0.3585826708157266    0.3659246641184114 Se
