Mg7 Sc16 Se32
1.0
  11.1003847944368736    0.0000000000000000    0.0000000000000000
   0.0000000000000000   11.1003847944368736    0.0000000000000000
  -0.0000000000000000   -0.0000000000000000   11.1003847944368736
Mg Sc Se
7 16 32
direct
   0.4977466966103187    0.9986805028037304    0.5028250976552862 Mg
   0.2515288845163139    0.7479456315896454    0.7461634195117278 Mg
   0.5011830914280486    0.4995751726385153    0.0020137764245439 Mg
   0.7483753798811993    0.2545879070677239    0.7557053465313325 Mg
   0.0430649092679397    0.1114041283566684    0.0983698310508770 Mg
   0.7499973246772441    0.7519190263579099    0.2493290452746220 Mg
   0.9991807663894274    0.4857970535239282    0.4950469311590369 Mg
   0.1236018556739260    0.8602121147568466    0.3833919776134661 Sc
   0.3746429030006447    0.1251366703873435    0.8750115492635754 Sc
   0.3738342746675253    0.3804553693118446    0.6288555470334942 Sc
   0.1101454565763412    0.1178106500418090    0.6162861615171935 Sc
   0.1248810684171711    0.3749726361803615    0.8748747890935595 Sc
   0.3926871605066615    0.6299479644711891    0.3846647959927251 Sc
   0.3697210919129157    0.8676142655205837    0.1192776577582582 Sc
   0.1269408295194799    0.6242743371122210    0.1212255221961746 Sc
   0.6242626092801464    0.8752634632044390    0.8751191268489306 Sc
   0.8709323454799652    0.1298442492276327    0.3630542912382703 Sc
   0.8773786037359355    0.3656215926095666    0.1259200606573034 Sc
   0.6257575292139673    0.1325462244804199    0.1260522895715700 Sc
   0.6311054666100079    0.3717612957431138    0.3668061226683340 Sc
   0.8756425935421234    0.6263279773647069    0.8656139576973204 Sc
   0.8822423958514609    0.8670901394730053    0.6267910415000010 Sc
   0.6319863624336934    0.6258306866038978    0.6087096118802894 Sc
   0.3830651569476312    0.1182981325366947    0.1155504066843886 Se
   0.6245193064559394    0.3856555502553367    0.6281965427443965 Se
   0.6163024845267485    0.1180926252480509    0.8855470082666185 Se
   0.3770825365988396    0.3894032980299000    0.3642234755220016 Se
   0.3652565769643589    0.1335317030195102    0.6313639938451151 Se
   0.1434381578270091    0.8630672058643758    0.1321079643145740 Se
   0.1175747525761416    0.1339595321569417    0.8598844768185209 Se
   0.3660305759097485    0.8668852905371756    0.3632727195092424 Se
   0.3753900952384588    0.6194449925340857    0.6086284629761951 Se
   0.6063591133760936    0.8834003280469478    0.1286011426918984 Se
   0.6157156575582527    0.6203562192858542    0.3978093091398133 Se
   0.3878512596222354    0.8918378832395016    0.8684684061169183 Se
   0.3750727370255771    0.6136592313986197    0.1385824860813704 Se
   0.1406494549649195    0.3642032422637855    0.6367643147748095 Se
   0.1331957487514509    0.6331714794609388    0.3671137048127590 Se
   0.3522519738070247    0.3796706960201306    0.8745670341673748 Se
   0.8817280379864245    0.1204878010047638    0.6076789942648118 Se
   0.1218208076267169    0.3957151509297261    0.1116040982416015 Se
   0.1187526644927192    0.1180494402830044    0.3811703267345957 Se
   0.8819014397297107    0.3772083216579032    0.8831278415702623 Se
   0.8711063611532964    0.1522986798735038    0.1299153017619243 Se
   0.6324539133554562    0.8674974654626334    0.6343309336637121 Se
   0.6300166815776432    0.1339033180603811    0.3576123727571905 Se
   0.8602566149540520    0.8618751103041545    0.8768535429005683 Se
   0.8803158803726595    0.6114565646687873    0.1175142710639742 Se
   0.1210457120062301    0.8973308077118010    0.6133500075918190 Se
   0.1174949615166270    0.6170237658767790    0.8828118148726254 Se
   0.8885290968147735    0.8708215030061014    0.3758105586791242 Se
   0.8658820259571752    0.6387011599578937    0.6334591816743073 Se
   0.6241086471981868    0.3710903211625283    0.1392896275020443 Se
   0.6323579412696938    0.6326023050772436    0.8662576955273675 Se
   0.8622899887425441    0.3621733390031217    0.3484427937895574 Se
