Mg7 Sc16 Se32
1.0
  11.1003847944368736    0.0000000000000000    0.0000000000000000
   0.0000000000000000   11.1003847944368736    0.0000000000000000
  -0.0000000000000000   -0.0000000000000000   11.1003847944368736
Mg Sc Se
7 16 32
direct
   0.4264153039693149    0.0782937157401942    0.4372170551120912 Mg
   0.2507853932500361    0.7505720492813719    0.7529569403629277 Mg
   0.4973182075311110    0.5002511158724673    0.9968411577797023 Mg
   0.7503639087594972    0.2500937865801814    0.7502811531442992 Mg
   0.9998144524233530    0.0003098406764127    0.0003861188936025 Mg
   0.7502445165444267    0.7526027996735379    0.2494407490623384 Mg
   0.0052719915006572    0.5035794096686855    0.5041430058202980 Mg
   0.1238156992604726    0.8702603111145537    0.3756294982523820 Sc
   0.3748206169373002    0.1251628797603332    0.8748539461313654 Sc
   0.3740237325165054    0.3791652528197754    0.6283151632541306 Sc
   0.1270033293808760    0.1283420090661249    0.6308177021002973 Sc
   0.1248945599852669    0.3790123990657087    0.8760919164603201 Sc
   0.3773698512335243    0.6213934238192949    0.3748018541526287 Sc
   0.3792471657760210    0.8760145081506920    0.1271711634141368 Sc
   0.1309637296913616    0.6284424584233965    0.1260040695648016 Sc
   0.6252651527462967    0.8755863895744439    0.8760404444083365 Sc
   0.8784899546205881    0.1200455360118388    0.3785107418743053 Sc
   0.8716304482516972    0.3757326908396172    0.1243866733596250 Sc
   0.6264034260459468    0.1266084630869274    0.1264609224964538 Sc
   0.6244138748350775    0.3771351248430803    0.3749209612988996 Sc
   0.8776226839289352    0.6263228730603531    0.8736787544288471 Sc
   0.8748868976820220    0.8742649017216717    0.6254032443940367 Sc
   0.6233893781150457    0.6269095387986738    0.6276807075033520 Sc
   0.3851250338975096    0.1164475083298243    0.1162478417210223 Se
   0.6171809174150956    0.3881777204994554    0.6189598737880347 Se
   0.6165449499464006    0.1191425590333886    0.8815198104776910 Se
   0.3823537530115681    0.3834716221205016    0.3824881373084024 Se
   0.3671521680369381    0.1368653729219986    0.6351738426414142 Se
   0.1326943429080054    0.8687374202380719    0.1321334668737118 Se
   0.1334522836816046    0.1353302552900264    0.8657302300998013 Se
   0.3694116328712930    0.8645964326701526    0.3629914574935245 Se
   0.3900674228962294    0.6178998042647244    0.6145737005258054 Se
   0.6191420754971884    0.8845645869889457    0.1207994465492661 Se
   0.6169404788292906    0.6118321053001645    0.3775303047877426 Se
   0.3828681471336966    0.8829193200605857    0.8833499546187277 Se
   0.3629316344476525    0.6346007779403406    0.1289621506078740 Se
   0.1341725638025845    0.3663480019095831    0.6286166059346020 Se
   0.1297425794261984    0.6336591283301161    0.3672394410380452 Se
   0.3700084539202698    0.3630076907901140    0.8652414742113428 Se
   0.8854347675411899    0.1173510520618544    0.6223896569785466 Se
   0.1172673898942793    0.3808525279546903    0.1129629914850311 Se
   0.1232077239341623    0.1210204932042607    0.3839057924850638 Se
   0.8830863597928486    0.3830469916611477    0.8823937351893076 Se
   0.8694190624885889    0.1390303700971758    0.1332768404163121 Se
   0.6323969191485643    0.8663941574737525    0.6337693111803155 Se
   0.6341401992942768    0.1260233119280699    0.3645998203049295 Se
   0.8628015535728385    0.8656442580813783    0.8650819240729897 Se
   0.8818022277806035    0.6166405819274903    0.1162906797035619 Se
   0.1174523836424362    0.8824948464630477    0.6173364028635084 Se
   0.1171282824040671    0.6170621444295306    0.8830587912756127 Se
   0.8890586670552543    0.8831234048663782    0.3804314130640664 Se
   0.8664839521404896    0.6346109421101205    0.6403589560870840 Se
   0.6324303619987490    0.3675053026373664    0.1312128458081460 Se
   0.6328594394851680    0.6302264275068414    0.8676985633211903 Se
   0.8734126069470508    0.3677979151007963    0.3677983551904747 Se
