Mg7 Sc16 Se32
1.0
  11.1003847944368736    0.0000000000000000    0.0000000000000000
   0.0000000000000000   11.1003847944368736    0.0000000000000000
  -0.0000000000000000   -0.0000000000000000   11.1003847944368736
Mg Sc Se
7 16 32
direct
   0.5003192188085102    0.9989080730345100    0.5061968153878739 Mg
   0.2458474836778884    0.2541042999676025    0.2545488887901005 Mg
   0.4915319289405987    0.4943592739944421    0.9975472634766943 Mg
   0.7491589246681343    0.2496837788840592    0.7484790191157266 Mg
   0.0048116707179720    0.9918046640787108    0.0036836345439557 Mg
   0.7472121409782441    0.7515708671675939    0.2528199139774090 Mg
   0.0002354929537588    0.5021914313428510    0.4985511713187207 Mg
   0.1165835370508964    0.8692760635975155    0.3716698443888566 Sc
   0.3768492074073576    0.1290641596350119    0.8657845467392694 Sc
   0.3739169808985092    0.3777992762441104    0.6261162541929931 Sc
   0.1252727625951025    0.1248021815167705    0.6251827983699323 Sc
   0.1256797082272713    0.3745946907668759    0.8775221075824748 Sc
   0.3728595111328163    0.6259945966131227    0.3757650629483661 Sc
   0.3831733524753239    0.8703451550589597    0.1283002423700247 Sc
   0.1242816845556585    0.6263716009556672    0.1252063875802128 Sc
   0.6242736941713377    0.8735909966477607    0.8752864811767134 Sc
   0.8745773603306281    0.1229874078742327    0.3655808711336619 Sc
   0.8720777630686825    0.3727583700119598    0.1247218614152742 Sc
   0.6239385655583531    0.1221943627677701    0.1168925823364974 Sc
   0.6238473903323984    0.3754757961598639    0.3756063677911474 Sc
   0.8781473026182072    0.6198403169290244    0.8713315250113615 Sc
   0.8747117543781427    0.8752440712115935    0.6248346817164508 Sc
   0.6205910086511416    0.6316141587565852    0.6189255457647732 Sc
   0.3821703911843305    0.1179228102990203    0.1193038117619860 Se
   0.6170531974310236    0.3818473136316508    0.6179129248936587 Se
   0.6200359981410194    0.1148828907319945    0.8848048868071543 Se
   0.3926217883238067    0.3818680361092697    0.3824051130262086 Se
   0.3683990632438448    0.1292170454836719    0.6384616270301535 Se
   0.1364722937921914    0.8613239220603967    0.1344288885800752 Se
   0.1312864811358594    0.1394630077939046    0.8692293933407058 Se
   0.3625911728708407    0.8677938284854562    0.3664725115916956 Se
   0.3821021814530206    0.6128120007643760    0.6177724415585549 Se
   0.6170244955874282    0.8826750834273018    0.1170304288709124 Se
   0.6108076508903035    0.6124858284580379    0.3773340423903509 Se
   0.3812961973197750    0.8807375030902966    0.8777659171863493 Se
   0.3645974921651144    0.6329726153671684    0.1320785624777799 Se
   0.1329961162148255    0.3672412729604830    0.6328446651812570 Se
   0.1319627540521401    0.6289250576342125    0.3669401912386915 Se
   0.3719288697404007    0.3709025695149087    0.8749666581299392 Se
   0.8846880624102387    0.1248931738229330    0.6196255243438087 Se
   0.1152891612891994    0.3831978033623492    0.1149413205848015 Se
   0.1162965730023462    0.1141827329963304    0.3787696034197378 Se
   0.8786755234815229    0.3868448457194854    0.8861771712090758 Se
   0.8700121871963334    0.1343786752854323    0.1282957714039618 Se
   0.6335243799547098    0.8702683228013540    0.6353721482976696 Se
   0.6340481242583613    0.1273171765529433    0.3639146758972448 Se
   0.8652464908271406    0.8690855059588476    0.8648919918032735 Se
   0.8829070402853018    0.6171097117864046    0.1173132671531433 Se
   0.1115723106429541    0.8890107807480464    0.6119643305190074 Se
   0.1139123783324621    0.6211688119672851    0.8790379221999145 Se
   0.8865208129251615    0.8869547658987653    0.3815079063312875 Se
   0.8693777683158728    0.6380545736913074    0.6324915064079841 Se
   0.6313649614268794    0.3681114133395161    0.1335250255956463 Se
   0.6323434860127565    0.6350338362068106    0.8599535290585919 Se
   0.8663554315147842    0.3623841582566757    0.3670153042219071 Se
