Mg7 Sc16 Se32
1.0
  11.1003847944368736    0.0000000000000000    0.0000000000000000
   0.0000000000000000   11.1003847944368736    0.0000000000000000
  -0.0000000000000000   -0.0000000000000000   11.1003847944368736
Mg Sc Se
7 16 32
direct
   0.5013361603812749    0.9997922896045068    0.5000433873766736 Mg
   0.2502390106076965    0.7492091834673366    0.7552546096711731 Mg
   0.4937795651142821    0.5019458740639214    0.0011917777275438 Mg
   0.7596911724008676    0.2570266878782916    0.7491713538964545 Mg
   0.2309301337632156    0.2789238792576535    0.2680450616658387 Mg
   0.7385571745896315    0.7463305222943046    0.2557339457938244 Mg
   0.0033376982365636    0.4998323817814789    0.4995719097029351 Mg
   0.1257855560340604    0.8741355619098644    0.3762395632873967 Sc
   0.3748564023230574    0.1256611535635601    0.8720155548722918 Sc
   0.3813369499392136    0.3654903290870654    0.6311104682144165 Sc
   0.1198539480140053    0.1264123562482526    0.6229280418158888 Sc
   0.1215581660068073    0.3743116272509304    0.8750879226750610 Sc
   0.3753738811396630    0.6258978222552999    0.3749745065462471 Sc
   0.3738689936135952    0.8842740050158485    0.1294329528009714 Sc
   0.1263478239269897    0.6278707222066846    0.1207707785239978 Sc
   0.6150746655097031    0.8783943017134266    0.8754302542399145 Sc
   0.8767151375108077    0.1296772568535346    0.3879358341138611 Sc
   0.8812043308581806    0.3792092702690655    0.1177378722442353 Sc
   0.6250269906365569    0.1278445286879774    0.1392431096277956 Sc
   0.6251558750473327    0.3612187997941895    0.3686661718766770 Sc
   0.8689814572806683    0.6103339121141336    0.8705856549389116 Sc
   0.8783724073034787    0.8776258888466770    0.6333063801720934 Sc
   0.6144053694867985    0.6327630239302575    0.6302906873852434 Sc
   0.3884090915603322    0.1173486708137193    0.1159373036762763 Se
   0.6165575849946429    0.3834948337046998    0.6118243643359729 Se
   0.6164624748231620    0.1166812757297731    0.8763484822857622 Se
   0.3773215669065512    0.3860805779988428    0.3982560662999306 Se
   0.3614806087127675    0.1308587456795386    0.6296413719020222 Se
   0.1261279917628668    0.8667359778788331    0.1416144423310845 Se
   0.1285731825417893    0.1369618868831821    0.8634049190928178 Se
   0.3794978207810883    0.8749239123166187    0.3705523049303859 Se
   0.3854743260836818    0.6190364214824592    0.6244608068544817 Se
   0.6090295259781702    0.8888886403183969    0.1119898404874589 Se
   0.6154516683175761    0.6189713102504698    0.3798829474550767 Se
   0.3839023565329124    0.8852182334722153    0.8832756762662247 Se
   0.3617864467958619    0.6216632010857758    0.1404815065606449 Se
   0.1350325965803394    0.3632904144634451    0.6332490336733808 Se
   0.1388664735953243    0.6299111055648776    0.3803261266491487 Se
   0.3649662029833121    0.3674080782347630    0.8707601681294084 Se
   0.8732562071223826    0.1239673202573105    0.6283484179081685 Se
   0.1156724487785050    0.3908526389418803    0.1195959286663719 Se
   0.1232249382894571    0.1183754014991670    0.3811579261008141 Se
   0.8818989916094724    0.3851272882835228    0.8817562096922608 Se
   0.8678288745467729    0.1327928066200946    0.1328267665882581 Se
   0.6398593532805986    0.8754906649034090    0.6394532578995292 Se
   0.6329907951314900    0.1263585438352200    0.3611848814292678 Se
   0.8670277343783656    0.8672421950939998    0.8675583776074599 Se
   0.8772983678330959    0.6144298103061797    0.1218939481388527 Se
   0.1132234408590726    0.8825115589415685    0.6164532765627162 Se
   0.1178070177937325    0.6174360308795338    0.8829106894788208 Se
   0.8897344590371964    0.8741633597965850    0.3800336719196497 Se
   0.8603209568092618    0.6303368094507938    0.6365513508363269 Se
   0.6462474392357888    0.3626051437117253    0.1282569908587475 Se
   0.6386598757568895    0.6359022113838599    0.8707179067938244 Se
   0.8562396649418437    0.3708980007274804    0.3688247423332284 Se
