Mg7 Sc16 Se32
1.0
  11.1003847944368736    0.0000000000000000    0.0000000000000000
   0.0000000000000000   11.1003847944368736    0.0000000000000000
  -0.0000000000000000   -0.0000000000000000   11.1003847944368736
Mg Sc Se
7 16 32
direct
   0.4987859098270636    0.9989000977072933    0.5023774730175664 Mg
   0.2554275316153182    0.7548502206133807    0.7512522254551287 Mg
   0.4969401989576786    0.5032346484750417    0.0013485795839005 Mg
   0.7556325806858122    0.2505306900318714    0.7500681797214164 Mg
   0.1997231740862269    0.2646931828384161    0.2506235162443838 Mg
   0.7487582677414809    0.7500321400965304    0.2503691036447949 Mg
   0.9929267032393646    0.5040181418723758    0.4985682544541513 Mg
   0.1238471296826700    0.8740658021873071    0.3756400667928917 Sc
   0.3733758338258929    0.1225356039409314    0.8785655386239485 Sc
   0.3752714312809067    0.3747344151564339    0.6245699325989454 Sc
   0.1233271668905921    0.1272431526418086    0.6227211981967435 Sc
   0.1240416613004786    0.3725088888855201    0.8757681011883455 Sc
   0.3750424062223844    0.6249489656402378    0.3743024610255835 Sc
   0.3705548925525234    0.8749603016505249    0.1252215285734169 Sc
   0.1249300252271780    0.6250145217941359    0.1248886585565164 Sc
   0.6258092864873644    0.8748912703234571    0.8726016105966260 Sc
   0.8827733066824466    0.1220523426868116    0.3706994012357848 Sc
   0.8753883254265631    0.3737635202076000    0.1258233202063566 Sc
   0.6281992770319518    0.1221195222305885    0.1250419904720545 Sc
   0.6253907835584112    0.3734928711353253    0.3743157107895460 Sc
   0.8751184191558178    0.6247178765617737    0.8749706281527311 Sc
   0.8739865020467965    0.8736730745654000    0.6226880057861020 Sc
   0.6159141926128945    0.6210566066310205    0.6249907218391311 Sc
   0.3816114138291264    0.1192882954609357    0.1204725544173297 Se
   0.6185484226664435    0.3809220230681767    0.6162826601399732 Se
   0.6163327446360986    0.1165468467416353    0.8768291146793286 Se
   0.3863229032080825    0.3783126933859110    0.3836133260745612 Se
   0.3659170591615206    0.1333901650770812    0.6432547043372512 Se
   0.1327648192800077    0.8691860640649439    0.1411519079697507 Se
   0.1318291936416747    0.1332512747166658    0.8655802486610417 Se
   0.3716411587715647    0.8635219785419312    0.3665118761749508 Se
   0.3861101499031945    0.6247776725629607    0.6217945650953376 Se
   0.6155883383137705    0.8853078139761595    0.1155063397583843 Se
   0.6182576747965740    0.6171689478254563    0.3828604500463680 Se
   0.3829692038998289    0.8775649997698981    0.8770835996057221 Se
   0.3660825505356131    0.6328858262830809    0.1341355521733155 Se
   0.1392479333575690    0.3677834326186142    0.6324347133409601 Se
   0.1318270371180484    0.6332634139674342    0.3659285992806642 Se
   0.3676111745647710    0.3662150607011755    0.8768785835151900 Se
   0.8864198942799901    0.1191230322393267    0.6191468863381998 Se
   0.1157413364316183    0.3839330142853660    0.1169240807211636 Se
   0.1166232919423350    0.1152482380329640    0.3847534908939212 Se
   0.8807790786335360    0.3791795835795772    0.8821373592791720 Se
   0.8698937758833417    0.1288584580119194    0.1351956216908188 Se
   0.6298061536759644    0.8673509798440805    0.6351081974965685 Se
   0.6314899926355281    0.1322886849592369    0.3680274640924849 Se
   0.8661775502255176    0.8666461439468989    0.8671536776489245 Se
   0.8830664037121284    0.6165898036614972    0.1198458113507808 Se
   0.1196842442253223    0.8820562226637528    0.6076155101930111 Se
   0.1176572455291420    0.6166986328404961    0.8829468738305459 Se
   0.8820296078354869    0.8867189119723432    0.3840033036528527 Se
   0.8671360707310221    0.6327141964680594    0.6327964357224894 Se
   0.6377943485095162    0.3719280281147144    0.1317850655888902 Se
   0.6347362769579211    0.6277106475605115    0.8660396791716790 Se
   0.8649605295584502    0.3681177540719343    0.3624130523382592 Se
