Mg7 Sc16 Se32
1.0
  11.1003847944368736    0.0000000000000000    0.0000000000000000
   0.0000000000000000   11.1003847944368736    0.0000000000000000
  -0.0000000000000000   -0.0000000000000000   11.1003847944368736
Mg Sc Se
7 16 32
direct
   0.4997292117219069    0.0004641679580635    0.4987840525903749 Mg
   0.2336850625113034    0.7401242718102683    0.7380920584056487 Mg
   0.4992448914709846    0.5213914657354197    0.9981323200723784 Mg
   0.7597038407456810    0.2621710918642690    0.7616797016642550 Mg
   0.0113642540608829    0.0097119329859213    0.0055355704368260 Mg
   0.7403137853776308    0.7663531567017522    0.2393256039269870 Mg
   0.9993346341437213    0.5003194838114049    0.4986977324550091 Mg
   0.1400042225059001    0.8791183021534992    0.3694550908394138 Sc
   0.3731723550000821    0.1261948989855561    0.8736784986123568 Sc
   0.3963847375888424    0.3691228525100251    0.6251342820926671 Sc
   0.1197761373361161    0.1075284689480333    0.6185540105544394 Sc
   0.1265799921411323    0.3784062281512144    0.8763827004987556 Sc
   0.3636142432176702    0.6306470967597653    0.3740982972916644 Sc
   0.3773668333376436    0.8731099928212960    0.1247803348803529 Sc
   0.1173143222614077    0.6227191184981514    0.1351136974349095 Sc
   0.6121243117638764    0.8893070722247343    0.8859134039970454 Sc
   0.8672749123300866    0.1145810533442928    0.3684457230098389 Sc
   0.8788261168634205    0.3793787285173206    0.1171175558454364 Sc
   0.6248392641950625    0.1384709872573888    0.1205623906220896 Sc
   0.6212548570332127    0.3812713486305263    0.3644042899946665 Sc
   0.8873069512715127    0.6211063118002405    0.8594541301507640 Sc
   0.8756573997052703    0.8804406840635521    0.6192877724408130 Sc
   0.6280702264308565    0.6268762805484243    0.6247215335224119 Sc
   0.3881871585067477    0.1004203209398928    0.1057339930803946 Se
   0.6158869369430429    0.3809192988858959    0.6172220251078683 Se
   0.6361932782191988    0.1137091806243967    0.8826803827451650 Se
   0.3831100520174918    0.3727498394346547    0.3927988808354279 Se
   0.3680395842614111    0.1369552178219782    0.6349478770261933 Se
   0.1471871437013156    0.8648967073395707    0.1187917007090566 Se
   0.1361472715029226    0.1303949979262127    0.8722251781469111 Se
   0.3736529844393061    0.8794948550318540    0.3619071964149984 Se
   0.3798220501110235    0.6200687580035857    0.6061058715312411 Se
   0.6167382713586597    0.8716370489389124    0.1167165618771105 Se
   0.6146732047559085    0.6143577028947452    0.3762794651103341 Se
   0.3907080214167071    0.8707740724747670    0.8652448821068329 Se
   0.3683422237757453    0.6345975623284391    0.1322922061621826 Se
   0.1348727843917238    0.3681092254021152    0.6336240611349739 Se
   0.1404708985267320    0.6299675238352683    0.3677739360123281 Se
   0.3508466659955097    0.3573432132458048    0.8589986050689371 Se
   0.8978276870057394    0.1092788558521321    0.6009670538897958 Se
   0.1199261741682837    0.3660018035495421    0.1179216966065187 Se
   0.1165416224471828    0.1123621554691037    0.4059890516813845 Se
   0.8821355534403891    0.3836160107412376    0.8837642859107184 Se
   0.8643123061510098    0.1356928874140465    0.1184034750802216 Se
   0.6287453649724174    0.8614393554384258    0.6387322616989470 Se
   0.6441477347294302    0.1370325766249124    0.3654900633998567 Se
   0.8546816127594116    0.8543918094544807    0.8598429491840208 Se
   0.8994051965592568    0.6097164106185411    0.1321506516980188 Se
   0.1071416546022787    0.8708960377374432    0.6349012210882964 Se
   0.1283270086034274    0.6219803835767327    0.8831482945398872 Se
   0.8801898325967265    0.8815968130725712    0.3831657331781484 Se
   0.8673712084389654    0.6329735809340026    0.6327628368569174 Se
   0.6250520677247863    0.3667189926539377    0.1395991690301407 Se
   0.6497526739246618    0.6297819854398711    0.8582107847194045 Se
   0.8656787919459995    0.3670585777215867    0.3655014510977561 Se
