Mg7 Sc16 Se32
1.0
  11.1003847944368736    0.0000000000000000    0.0000000000000000
   0.0000000000000000   11.1003847944368736    0.0000000000000000
  -0.0000000000000000   -0.0000000000000000   11.1003847944368736
Mg Sc Se
7 16 32
direct
   0.4999176932318839    0.0004946351393798    0.5003237778086006 Mg
   0.2497621217168381    0.2425100780067087    0.2490299872811605 Mg
   0.5027966093411984    0.5032303274560087    0.0034786105583522 Mg
   0.7476093185560243    0.2519452079039612    0.7519121333365396 Mg
   0.9993822455508371    0.9946965987722780    0.0011345028315812 Mg
   0.7492320372098915    0.7432457614420644    0.2473072020760216 Mg
   0.9994239551521509    0.4991689407243886    0.4985878739050665 Mg
   0.1228041199092983    0.8692154654477726    0.3738332803868799 Sc
   0.3780715168482789    0.1183763926027848    0.8758095908569778 Sc
   0.3724015866523095    0.3756583312314687    0.6270736999800072 Sc
   0.1276279943559666    0.1238348855216549    0.6288635082295969 Sc
   0.1277859603038282    0.3774221272329935    0.8767897073698212 Sc
   0.3705720293125457    0.6242570853594597    0.3737421265539245 Sc
   0.3749350307536847    0.8769355038659126    0.1230146972715708 Sc
   0.1246020460732201    0.6249068212528820    0.1274107213628317 Sc
   0.6250160819828042    0.8740158683729738    0.8751323886231608 Sc
   0.8740963486248968    0.1266144104503817    0.3746921091292557 Sc
   0.8692458439623186    0.3733574740129466    0.1249855972668939 Sc
   0.6302487374199188    0.1234418196036262    0.1277351362961953 Sc
   0.6241965322224156    0.3758280740546331    0.3751879171600153 Sc
   0.8751879893779351    0.6250109890822789    0.8746621038107373 Sc
   0.8753545828757698    0.8743585458590190    0.6244729681348125 Sc
   0.6272760535220537    0.6292475818140736    0.6245384300473800 Sc
   0.3831224159273370    0.1215407623931917    0.1174175380388416 Se
   0.6165446203417415    0.3817367975530620    0.6168509828424313 Se
   0.6139211312242863    0.1166505647072941    0.8855475815525991 Se
   0.3834064550990072    0.3829697934820065    0.3830036083237729 Se
   0.3621637585327560    0.1343752682136387    0.6356156727534521 Se
   0.1320181130487084    0.8653172791029372    0.1374356610759238 Se
   0.1258596227298357    0.1318028896063560    0.8681834780507299 Se
   0.3618736060108237    0.8625588397901955    0.3681930983547376 Se
   0.3831980619296412    0.6182763501604889    0.6176792767702500 Se
   0.6168692166688401    0.8825865991941598    0.1169914641570600 Se
   0.6122882583905908    0.6184013715556281    0.3780509936601296 Se
   0.3841292152162268    0.8827966874681231    0.8826104256067536 Se
   0.3701398047530388    0.6338570838121499    0.1262810387153581 Se
   0.1342934153007996    0.3627464861366912    0.6361000684146341 Se
   0.1313948864840327    0.6343351627740317    0.3672484925871197 Se
   0.3684619565791200    0.3673857156937380    0.8676539956573867 Se
   0.8830483088293104    0.1228670647926199    0.6176255998114349 Se
   0.1211525025907567    0.3861217637944187    0.1184290829520489 Se
   0.1164151712306945    0.1207410985001896    0.3829330614326220 Se
   0.8837104895591481    0.3799367888815839    0.8836022870406096 Se
   0.8675090210838582    0.1326349889548941    0.1314561789851313 Se
   0.6314568491190862    0.8695759963515344    0.6378799531083292 Se
   0.6324302013810050    0.1355101713173375    0.3678622082922779 Se
   0.8701312262909791    0.8641677154022837    0.8647971796191318 Se
   0.8842718899893619    0.6156302998539450    0.1220485884240332 Se
   0.1185069163902424    0.8813815987369200    0.6186933464881849 Se
   0.1212780885120903    0.6121854808809155    0.8846661251372898 Se
   0.8823882461652286    0.8853278930501248    0.3818591696051207 Se
   0.8704254318511581    0.6384676704405472    0.6309383148005780 Se
   0.6367656635423454    0.3675649319302444    0.1334706621575277 Se
   0.6350171239466980    0.6388128893468881    0.8707186990445589 Se
   0.8685737493622262    0.3653899559128719    0.3724282306061447 Se
