Mg7 Sc16 Se32
1.0
  11.1003847944368736    0.0000000000000000    0.0000000000000000
   0.0000000000000000   11.1003847944368736    0.0000000000000000
  -0.0000000000000000   -0.0000000000000000   11.1003847944368736
Mg Sc Se
7 16 32
direct
   0.4987567397216245    0.0000319027648861    0.5007468992055402 Mg
   0.2541900768883096    0.7418002095124254    0.7516022201245863 Mg
   0.4982847414280047    0.5071336524534922    0.0034147345622387 Mg
   0.7562781935742466    0.2374613317473719    0.7481713619327635 Mg
   0.9999031264099068    0.9996596819434612    0.0014543222271173 Mg
   0.7529456339827667    0.7433304749618447    0.2473458685138079 Mg
   0.0036817313857451    0.5015350200370885    0.5066203218344542 Mg
   0.1184869071397531    0.8697506940340118    0.3852838645607842 Sc
   0.3691604814276823    0.1238095055119501    0.8823435614489319 Sc
   0.3688292102090088    0.3708377453091271    0.6236829819933385 Sc
   0.1319409214480575    0.1220368045864677    0.6277528584608318 Sc
   0.1268483035509349    0.3749363601978214    0.8762046715240881 Sc
   0.3750502067032409    0.6249595017019679    0.3749983588862442 Sc
   0.3672014602057102    0.8877039935653266    0.1257691165058620 Sc
   0.1277302616855761    0.6183109214086638    0.1354758677280831 Sc
   0.6275264003481527    0.8672743984207041    0.8629835436538684 Sc
   0.8799884943885019    0.1321289569785347    0.3787601808904373 Sc
   0.8793696892242377    0.3775640171100231    0.1382071947981342 Sc
   0.6200697055984046    0.1261132681381507    0.1219284818887909 Sc
   0.6244637056174507    0.3750128293386341    0.3794828860251990 Sc
   0.8778624659552334    0.6165098097372983    0.8703724547133088 Sc
   0.8798949231733744    0.8804318707880873    0.6290963094427030 Sc
   0.6319718230585522    0.6340368590422576    0.6203009764941033 Sc
   0.3805548666545991    0.1226892894285520    0.1249171989885960 Se
   0.6256201372599338    0.3782421961789939    0.6114922011517987 Se
   0.6254641566561058    0.1249837609257105    0.8893490030313683 Se
   0.3779225961049387    0.3837043569345128    0.3736837242347355 Se
   0.3680004282546743    0.1253119664564263    0.6327766079642113 Se
   0.1338988271269560    0.8680334614938418    0.1327481605176327 Se
   0.1325636993020305    0.1324846444727291    0.8662167813701684 Se
   0.3624512640283533    0.8729257247701160    0.3563405612568604 Se
   0.3689320752487570    0.6227461358590411    0.6123683138932486 Se
   0.6171187454178638    0.8832038941504397    0.1170454961232786 Se
   0.6178399588181788    0.6162513768104757    0.3868219380024761 Se
   0.3836605210781448    0.8896958524705606    0.8946832203526702 Se
   0.3693216838235301    0.6293329759460785    0.1355943041953227 Se
   0.1404837148139519    0.3815672040359440    0.6360327220788194 Se
   0.1175168708739837    0.6371894745356750    0.3642357138799378 Se
   0.3807640997525909    0.3605524354848687    0.8638303216343748 Se
   0.8783741495245396    0.1107430488062867    0.6029512864616178 Se
   0.1212183342651034    0.3835421996043345    0.1206558491861109 Se
   0.1158870642807414    0.1148244356887459    0.3849907121421812 Se
   0.8802478343831396    0.3869989104312381    0.8676080575978339 Se
   0.8625622545814281    0.1306761785842148    0.1194543357970796 Se
   0.6225463056997347    0.8726929024337960    0.6366022213261119 Se
   0.6325053804520612    0.1301091672226434    0.3759463693722725 Se
   0.8669374978884609    0.8655391943760761    0.8761592494835626 Se
   0.8728270281483406    0.6164644770690884    0.1242410144912027 Se
   0.1249760628135002    0.8894431560769019    0.6254956383579821 Se
   0.1133394513161863    0.6176905271384256    0.8800956595574421 Se
   0.8820211235178497    0.8826628376418004    0.3827414454126981 Se
   0.8623622506810337    0.6411831292264177    0.6354072800474611 Se
   0.6348989669387317    0.3781760036057904    0.1308222000567033 Se
   0.6350098068197743    0.6233987979435135    0.8583709787516312 Se
   0.8678591214243772    0.3695094805794425    0.3649986961005126 Se
