Mg7 Sc16 Se32
1.0
  11.1003847944368736    0.0000000000000000    0.0000000000000000
   0.0000000000000000   11.1003847944368736    0.0000000000000000
  -0.0000000000000000   -0.0000000000000000   11.1003847944368736
Mg Sc Se
7 16 32
direct
   0.4955351872706510    0.0021289224123941    0.5021341083479900 Mg
   0.2487457523384490    0.7439984754557183    0.7552689546813807 Mg
   0.2524531011084667    0.2353350381592978    0.2574895728963624 Mg
   0.7480621262668189    0.2530682706996293    0.7299110797425792 Mg
   0.0110666266214348    0.9941305975378250    0.0088222033675458 Mg
   0.7501772683162844    0.7501286739747269    0.2497164227621995 Mg
   0.0004712512331686    0.4999945338605550    0.5013183117067770 Mg
   0.1228289160690677    0.8766480857794192    0.3690674691192911 Sc
   0.3916867183664818    0.1193567548362902    0.8824288276006976 Sc
   0.3766534790490240    0.3771316137684956    0.6242863903150059 Sc
   0.1358509532505790    0.1342017897044195    0.6393729290133643 Sc
   0.1245084165165331    0.3753612377797665    0.8750281467416133 Sc
   0.3768976688085079    0.6248506650154286    0.3678651714070928 Sc
   0.3775730035747522    0.8908496408347492    0.1352228753888334 Sc
   0.1306653801714829    0.6210123805328051    0.1334173725876091 Sc
   0.6256271739374648    0.8726682555810278    0.8760728053508398 Sc
   0.8744289890183902    0.1335021937370104    0.3561482396984498 Sc
   0.8682524453589381    0.3675574059213625    0.1291988221044269 Sc
   0.6213702462848882    0.1399295136724852    0.1267834521886409 Sc
   0.6165534770307021    0.3642557462771898    0.3771569990565532 Sc
   0.8885703044989416    0.6200964316003864    0.8813323442067788 Sc
   0.8747114019733219    0.8726604265969455    0.6476070806686063 Sc
   0.6220782088353780    0.6356170299048421    0.6271594230836792 Sc
   0.3791057378628803    0.1263756235727305    0.1332115864991522 Se
   0.6154691368046892    0.3885051819862471    0.6182205733166908 Se
   0.6250019435276901    0.1053591381245038    0.8647164655502847 Se
   0.3798406299565327    0.3944068658974170    0.3877364352782365 Se
   0.3584103514422330    0.1277708376923906    0.6242680783127484 Se
   0.1283767146378430    0.8639578809754929    0.1314658363739273 Se
   0.1311111488534867    0.1156759866847623    0.8675459135451302 Se
   0.3457606812926717    0.8670560691523737    0.3730324582768763 Se
   0.3841518199727050    0.6163853912866364    0.6216603949720237 Se
   0.6165170246099927    0.8842087290791447    0.1156137531849994 Se
   0.6151739326698895    0.6289038300926345    0.3919001156482786 Se
   0.3791672685146455    0.8801606984489428    0.8895887414882844 Se
   0.3812103255538737    0.6357315669366701    0.1485183125716902 Se
   0.1529631480430262    0.3581522882417146    0.6280371585421417 Se
   0.1381863539607351    0.6416429522576620    0.3768759145718975 Se
   0.3688092171915034    0.3728484221830460    0.8762303529414004 Se
   0.8937476853900890    0.1242670057548481    0.6203828300991933 Se
   0.1364682462192862    0.3833506092045019    0.1244189371262379 Se
   0.1093283044047565    0.1132491228385411    0.3835051122896677 Se
   0.8850356277619496    0.3863079982424164    0.8830144480701422 Se
   0.8690732145510237    0.1315914876393549    0.1328487315935704 Se
   0.6334854316512875    0.8689810505706689    0.6329804616934893 Se
   0.6446419736792068    0.1178247299084763    0.3707356138529864 Se
   0.8683721849422250    0.8659641750702101    0.8693079026130978 Se
   0.8875960698999747    0.6185404842821588    0.1128171738853181 Se
   0.1142872328756814    0.8955714894210464    0.6112540669800001 Se
   0.1255730331896990    0.6126405077912657    0.8802011355628169 Se
   0.8650459138292127    0.8862362430434234    0.3887917097033717 Se
   0.8693583521763359    0.6170966361224444    0.6342578237729131 Se
   0.6434823261631404    0.3554510644353136    0.1309532151647594 Se
   0.6387926180640136    0.6207686038627771    0.8766117745435592 Se
   0.8519911251985158    0.3653657388326537    0.3670038039885908 Se
