Mg7 Sc16 Se32
1.0
  11.1003847944368736    0.0000000000000000    0.0000000000000000
   0.0000000000000000   11.1003847944368736    0.0000000000000000
  -0.0000000000000000   -0.0000000000000000   11.1003847944368736
Mg Sc Se
7 16 32
direct
   0.5022223188908504    0.9993942110052645    0.5027369029471062 Mg
   0.2036784459476765    0.4187063799008600    0.3754637363091430 Mg
   0.5000704511530443    0.4916769137453906    0.9975310873130061 Mg
   0.7519732836089561    0.2587796636519311    0.7614144935302912 Mg
   0.9828512234500723    0.0087039108755465    0.9944487885903547 Mg
   0.7442583213852157    0.7546589193686468    0.2563902660811853 Mg
   0.9982148855668612    0.5142297773203770    0.4952282772336418 Mg
   0.1193216930286350    0.8686012864104412    0.3846133572526244 Sc
   0.3748253957088767    0.1393666015221916    0.8822091746061363 Sc
   0.3794139008699337    0.3650867895793865    0.6155205266651084 Sc
   0.1227204798418792    0.1077933885714570    0.6158301851472067 Sc
   0.1390256872428726    0.3842188650647087    0.8712974837374039 Sc
   0.3704690750309804    0.6291289982751201    0.3774953967266911 Sc
   0.3644411697471263    0.8763769221722497    0.1302298105130111 Sc
   0.1280331197101551    0.6177699738945214    0.1295826921415330 Sc
   0.6248561422743476    0.8739260286159197    0.8712119410131656 Sc
   0.8777666878406392    0.1310111337111876    0.3718829962364410 Sc
   0.8759759670074491    0.3844740871764150    0.1112323501367902 Sc
   0.6259345261255106    0.1245657261096189    0.1242330592860789 Sc
   0.6185149930813025    0.3758194420165787    0.3708583549821402 Sc
   0.8739817404782297    0.6272967612034969    0.8748825340622457 Sc
   0.8748836873712567    0.8684279624638912    0.6271957277784800 Sc
   0.6254939220576435    0.6248362436532604    0.6271989101989712 Sc
   0.3787823460089599    0.1094565580205597    0.1233383811594077 Se
   0.6153072027802529    0.3831723864871041    0.6166111741060892 Se
   0.6180615939144473    0.1201241425911657    0.8806978475080673 Se
   0.3827553144058848    0.3742191535370936    0.3792365306039650 Se
   0.3712834486960715    0.1328111676330838    0.6403482440257035 Se
   0.1298799807169224    0.8694817299428054    0.1465766895891727 Se
   0.1276380595835897    0.1308942677142518    0.8650347037058362 Se
   0.3626471937413012    0.8700995619521712    0.3631398662181528 Se
   0.3730738690883026    0.6157387911926367    0.6088834344117308 Se
   0.6153040560480839    0.8828159719849026    0.1175905741576596 Se
   0.6173793210451227    0.6172645004318427    0.3829362554324222 Se
   0.3871008222172851    0.8839227619666620    0.8837945295184471 Se
   0.3742395919195420    0.6147401384537936    0.1387953372835325 Se
   0.1138897884883847    0.3718039209159780    0.6320464046862817 Se
   0.1208000254219857    0.6374981274767637    0.3693655938311391 Se
   0.3549730012187068    0.3540598583732639    0.8604656412002841 Se
   0.8849024099756305    0.1197877631272453    0.6093048763752071 Se
   0.1165787667774486    0.3836915824891299    0.1204649510286187 Se
   0.1180551719498128    0.1260745066572538    0.3840712510102303 Se
   0.8844290890898499    0.3838492930205012    0.8798090536071067 Se
   0.8661437128998405    0.1455991354470341    0.1270283702886114 Se
   0.6331373127098843    0.8673577581175764    0.6326875375287679 Se
   0.6305859107565551    0.1332543690935165    0.3661095118441597 Se
   0.8667694090773248    0.8672558990292751    0.8713624284484282 Se
   0.8870574940814822    0.6184087024456233    0.1119111523238773 Se
   0.1137230214614707    0.8782731549386734    0.6262216590345577 Se
   0.1152393163653133    0.6164086339417584    0.8705386118109817 Se
   0.8692029046282509    0.8727299234213873    0.3769581692932154 Se
   0.8687928619998782    0.6278781252929008    0.6137322192288960 Se
   0.6333263581772089    0.3696768783514841    0.1311972894533497 Se
   0.6462458341498752    0.6304115158372716    0.8662520223983902 Se
   0.8641109394395102    0.3661970174895843    0.3654882559264688 Se
