Mg7 Sc16 Se32
1.0
  11.1003847944368736    0.0000000000000000    0.0000000000000000
   0.0000000000000000   11.1003847944368736    0.0000000000000000
  -0.0000000000000000   -0.0000000000000000   11.1003847944368736
Mg Sc Se
7 16 32
direct
   0.4983616018765220    0.0013259580464316    0.4972624679384474 Mg
   0.2467763634771553    0.7498689704854918    0.7503778404662135 Mg
   0.4864534820061724    0.5108385822919719    0.0025049046190622 Mg
   0.7538808789068150    0.2487909622064746    0.7441150454179276 Mg
   0.9982848144070116    0.0025411618675080    0.9866070252644040 Mg
   0.7463240067885193    0.7440150852818262    0.2504605899306546 Mg
   0.0025666306339338    0.4955583831491286    0.4974669325203344 Mg
   0.1267311388317789    0.8720259862352960    0.3784510715820157 Sc
   0.3798952226057658    0.1300850997446125    0.8803776463954508 Sc
   0.3660248715585932    0.3849380885998774    0.6354452083781753 Sc
   0.1300338836499963    0.1370043034162380    0.6324477252361071 Sc
   0.1207679894473211    0.3628817432339848    0.8790290525604139 Sc
   0.3622471263451366    0.6292597680917322    0.3873166316711267 Sc
   0.3869508427957191    0.8847099572855383    0.1254965598258715 Sc
   0.1205087290072571    0.6248458655365705    0.1188860039294054 Sc
   0.6222760641020256    0.8783673659044174    0.8868607697416151 Sc
   0.8765380763078283    0.1142635915920613    0.3943325726020387 Sc
   0.8748989014852059    0.3751511637677516    0.1246057068483019 Sc
   0.6244434211473244    0.1340022703943305    0.1385559587633764 Sc
   0.6256020302167246    0.3768690619566533    0.3740690045593459 Sc
   0.8724098705203956    0.6381565567035562    0.8638838308318767 Sc
   0.8642955802407983    0.8832194441028757    0.6060566870040989 Sc
   0.6331182381976289    0.6357956661761692    0.6118390963543369 Sc
   0.3821095276435310    0.1188178117671414    0.1185658958250323 Se
   0.6259731941828469    0.3670902418515788    0.5985195746987959 Se
   0.6271911615115484    0.1327121817004865    0.8814501390368010 Se
   0.3827297541134042    0.3829917565190969    0.3828937717458513 Se
   0.3758663833295096    0.1364194904246489    0.6177434201248393 Se
   0.1301140522750834    0.8654707729799106    0.1344096555361287 Se
   0.1324348570783854    0.1351460764436006    0.8910020154061660 Se
   0.3794047267624869    0.8584432361948721    0.3861866451998235 Se
   0.3952987983758688    0.5986622477547446    0.6278729872736382 Se
   0.6205023817763806    0.8850509974000965    0.1209563891471886 Se
   0.6084006709403302    0.6083943408545092    0.3848805060006362 Se
   0.3894218409011463    0.8930624803825035    0.8861982299218146 Se
   0.3900560409428523    0.6284639140304937    0.1301697380444932 Se
   0.1438705170792730    0.3555556650634168    0.6414977551197439 Se
   0.1167369836006773    0.6147811320001074    0.3677338320649727 Se
   0.3670274341719079    0.3782357785052427    0.8672852811878524 Se
   0.8953691373936512    0.1115307134456726    0.6103228820056220 Se
   0.1220450422582251    0.3928322593815854    0.1111445784380953 Se
   0.1153246835659358    0.1178793973903125    0.3826635267941583 Se
   0.8788066110610615    0.3813374065182568    0.8836445141650521 Se
   0.8640894600540235    0.1323196296117996    0.1337961581569189 Se
   0.6310884859300466    0.8666649378608015    0.6260812617013081 Se
   0.6310850630518192    0.1319221610944719    0.3619700512006778 Se
   0.8668972455138239    0.8670819695925253    0.8670426281833582 Se
   0.9015038344883635    0.6112531631963948    0.1256916823330581 Se
   0.1172049320485933    0.8838036815430179    0.6171953792896203 Se
   0.1245850815916931    0.6302574734713754    0.8716578366197687 Se
   0.8785279211481704    0.8860964977672031    0.3915181393680949 Se
   0.8636729857033287    0.6476532702549831    0.6275066883032284 Se
   0.6373069020614145    0.3767720259268319    0.1328570266882183 Se
   0.6374971693887600    0.6076475645000817    0.8726600900966298 Se
   0.8687123836459374    0.3828781207815279    0.3576615727652696 Se
