Mg7 Sc16 Se32
1.0
  11.1003847944368736    0.0000000000000000    0.0000000000000000
   0.0000000000000000   11.1003847944368736    0.0000000000000000
  -0.0000000000000000   -0.0000000000000000   11.1003847944368736
Mg Sc Se
7 16 32
direct
   0.5006456187351742    0.0012392488942098    0.4988288347300087 Mg
   0.1984365226397395    0.3128282372956911    0.2604504738662695 Mg
   0.4966695746715241    0.5010693504075067    0.9975063901362389 Mg
   0.7468179199872281    0.2474254946525626    0.7485133129547151 Mg
   0.9977161055450962    0.0002996147580874    0.0015065537921679 Mg
   0.7503909243268685    0.7532363873351452    0.2549596702018881 Mg
   0.9998700517523459    0.4998945780987449    0.5001525519638147 Mg
   0.1245947994247689    0.8699605764914919    0.3764374095763203 Sc
   0.3721796455233653    0.1244555815060986    0.8772304143297267 Sc
   0.3803555604000827    0.3739520822240703    0.6251518219423543 Sc
   0.1251316771779568    0.1249577622167266    0.6249122716044807 Sc
   0.1202296430592803    0.3754684566152487    0.8713066535996229 Sc
   0.3759005885528279    0.6251151152310088    0.3746641583867383 Sc
   0.3744327494762638    0.8758421708642136    0.1243224928765372 Sc
   0.1320601712057343    0.6270406864807944    0.1236772667882543 Sc
   0.6269333142471361    0.8793025564879069    0.8744621144334063 Sc
   0.8743921245496861    0.1246077414364524    0.3741868483339400 Sc
   0.8747634058542781    0.3750578296445446    0.1274374542780462 Sc
   0.6217465971270045    0.1229807629568433    0.1201496239960592 Sc
   0.6220239329867023    0.3793648796065924    0.3734814194259998 Sc
   0.8765494846644890    0.6190953128890486    0.8762859466696872 Sc
   0.8782422596393339    0.8757255596903913    0.6251425322492483 Sc
   0.6249654027626446    0.6223785020865927    0.6267991184225864 Sc
   0.3835036852316437    0.1171377423238437    0.1167823484180790 Se
   0.6147816546170989    0.3840171586505992    0.6157883282596781 Se
   0.6159789114275196    0.1159524649131042    0.8839161240604023 Se
   0.3828797989770079    0.3828025996745102    0.3828508659550068 Se
   0.3727220194755076    0.1287975229116079    0.6353305807776349 Se
   0.1369312628854125    0.8686809510593209    0.1279175937679504 Se
   0.1340704666595393    0.1322691439453755    0.8657428873232649 Se
   0.3628729656017364    0.8664769924870330    0.3715628618092696 Se
   0.3864220872836437    0.6151359845527300    0.6143929161136678 Se
   0.6200350584605480    0.8766921865183624    0.1172022078899989 Se
   0.6137711857576340    0.6175719604777511    0.3839729736354135 Se
   0.3830794178640685    0.8821006797562712    0.8822013350140543 Se
   0.3662821235002930    0.6369806667449992    0.1310831070410315 Se
   0.1351361798926447    0.3712166986634512    0.6333615642587910 Se
   0.1335149005166510    0.6333192795852063    0.3667544708559766 Se
   0.3691815434033662    0.3614994297272029    0.8635231488985653 Se
   0.8826848175754245    0.1131338826033393    0.6138396405922305 Se
   0.1168392989780592    0.3779624741216528    0.1230520757815081 Se
   0.1173646702767634    0.1166596059650307    0.3759570107980177 Se
   0.8799851263041963    0.3835849231145020    0.8851852969558703 Se
   0.8655649864664654    0.1322788164202327    0.1317816666656091 Se
   0.6277847468355024    0.8672845909668876    0.6370794637276610 Se
   0.6344956163450269    0.1289474552876941    0.3709484566142153 Se
   0.8675283238445354    0.8681456076575856    0.8726677769422240 Se
   0.8857429278944544    0.6222012909306174    0.1205231011925059 Se
   0.1172579647170094    0.8823483908518953    0.6138994396924718 Se
   0.1174478629136151    0.6187506272349005    0.8891951976901185 Se
   0.8806131017502975    0.8816248100769869    0.3805816558186491 Se
   0.8735259488466868    0.6350109269854216    0.6312943819102519 Se
   0.6324051487502012    0.3683250830317851    0.1338931313532871 Se
   0.6336189102379695    0.6356435029761899    0.8679407565010023 Se
   0.8656312738061106    0.3688745102342085    0.3606457957856792 Se
