Mg7 Sc16 Se32
1.0
  11.1003847944368736    0.0000000000000000    0.0000000000000000
   0.0000000000000000   11.1003847944368736    0.0000000000000000
  -0.0000000000000000   -0.0000000000000000   11.1003847944368736
Mg Sc Se
7 16 32
direct
   0.5002081994530067    0.9980885742643477    0.5025707004716369 Mg
   0.2561307444421710    0.7471838838098162    0.7650953336405719 Mg
   0.4315865914298122    0.4350735003568339    0.0669863255367909 Mg
   0.7584122796176150    0.2446229088646487    0.7378122939877633 Mg
   0.0015060019356944    0.0002296994365110    0.0012355638386120 Mg
   0.7481542574132440    0.7628723195619722    0.2696470402250544 Mg
   0.9961619484142832    0.4999602614200185    0.5189160912669949 Mg
   0.1231719636900743    0.8601972218824951    0.3904531148036200 Sc
   0.3733727035510369    0.1246972251547612    0.8711538560283033 Sc
   0.3744105333151817    0.3745317262336227    0.6249166716354140 Sc
   0.1416075316274085    0.1134576492976331    0.6152202224483848 Sc
   0.1255952902153503    0.3731043749575407    0.8727418050917399 Sc
   0.3770321324656258    0.6220555336063569    0.3753315170572096 Sc
   0.3797043084625121    0.8754586326384696    0.1287617411806971 Sc
   0.1223248191105058    0.6137389312358250    0.1213390299410545 Sc
   0.6233104710791562    0.8781921503792344    0.8805151008074932 Sc
   0.8818101495264832    0.1383302309644417    0.3895548691920888 Sc
   0.8749307323719883    0.3758898379472350    0.1246177174510513 Sc
   0.6176229730293880    0.1169412818716289    0.1331985952185850 Sc
   0.6355733005067330    0.3770185427487304    0.3615890644946440 Sc
   0.8777681615308288    0.6261318244810260    0.8770350058222358 Sc
   0.8732523157194914    0.8723048341118909    0.6359208558421083 Sc
   0.6326240465966241    0.6297459744833810    0.6056193814106696 Sc
   0.3770426302741834    0.1161969156714605    0.1149626296068291 Se
   0.6181359102094097    0.3817581534867348    0.6185919605651037 Se
   0.6168776745922339    0.1198775099327542    0.8835832039655050 Se
   0.3898098629707292    0.3914968288028821    0.3734880088535374 Se
   0.3495031066186860    0.1333275223961069    0.6394818938318451 Se
   0.1295307305584785    0.8605886565515272    0.1311941382814589 Se
   0.1265326190442041    0.1316495528657980    0.8616257576849383 Se
   0.3631962073634353    0.8643243788891912    0.3655683946143998 Se
   0.3861137236299152    0.6154482116235195    0.6143208091346178 Se
   0.6171866290755326    0.8829230708385275    0.1168631315081196 Se
   0.6198966593428454    0.6200720128611559    0.3779085838845306 Se
   0.3780071285761682    0.8658166696623559    0.8966806329139588 Se
   0.3668106388743197    0.6335684242363159    0.1363945955586997 Se
   0.1319086163922427    0.3862088355844089    0.6441196365426697 Se
   0.1296706623650990    0.6324321502597551    0.3696154630235375 Se
   0.3671169956567492    0.3671210791553781    0.8673499494087333 Se
   0.8762679188176301    0.1293522542310124    0.6303270389967511 Se
   0.1314827572929343    0.3926812216950655    0.1216840684975324 Se
   0.1128787638364230    0.1072944036254031    0.3960933181237452 Se
   0.8830083205638721    0.3769905941084828    0.8893142711162553 Se
   0.8665603161885631    0.1300089360423891    0.1312607816999023 Se
   0.6329062319944910    0.8671943608748917    0.6328570137114872 Se
   0.6238916680745474    0.1181337857366166    0.3589385067024194 Se
   0.8600900608783204    0.8634311487431230    0.8689948274814878 Se
   0.8816208001111215    0.6239924645751088    0.1177377459280522 Se
   0.1048254436898017    0.8878919227216691    0.6014679018251453 Se
   0.1165805822404019    0.5964596527229153    0.8822591939708156 Se
   0.8785407260798395    0.8989916198713727    0.3986093482050416 Se
   0.8698796204309519    0.6362770847380987    0.6339334700137226 Se
   0.6351086154027604    0.3764047780433501    0.1397022472076055 Se
   0.6265044967778440    0.6449458333032123    0.8699786486936808 Se
   0.8782867702446593    0.3493592437460740    0.3565227708521228 Se
