Mg7 Sc16 Se32
1.0
  11.1003847944368736    0.0000000000000000    0.0000000000000000
   0.0000000000000000   11.1003847944368736    0.0000000000000000
  -0.0000000000000000   -0.0000000000000000   11.1003847944368736
Mg Sc Se
7 16 32
direct
   0.3583111688271529    0.1092066842786491    0.3902986529664055 Mg
   0.2490534993502098    0.7505711160568153    0.7499616334224327 Mg
   0.4951798015317197    0.5017716509990422    0.0033727985868610 Mg
   0.7520167163822848    0.2522019761385040    0.7517716694227226 Mg
   0.9930748146465777    0.0006990011405407    0.9964137030629909 Mg
   0.7489192487789414    0.7499303718414271    0.2508738527290151 Mg
   0.0048930324623995    0.4971487744481518    0.4990588368327761 Mg
   0.1200959405634939    0.8803174729353315    0.3762163116315854 Sc
   0.3772157736404149    0.1258008815506690    0.8734570367742227 Sc
   0.3734877621166414    0.3717116394301632    0.6269484152084260 Sc
   0.1244037350266063    0.1248666414558398    0.6260917485472413 Sc
   0.1321456696068296    0.3706652552974096    0.8767544820358343 Sc
   0.3747602288110449    0.6262943678119142    0.3758879080878412 Sc
   0.3686253221960853    0.8808383041329029    0.1250357690254152 Sc
   0.1203539435550604    0.6220497736342492    0.1266766870339001 Sc
   0.6254614583469882    0.8752530225419091    0.8746701695350577 Sc
   0.8763437104742265    0.1238537606694316    0.3772529255234804 Sc
   0.8806111490274439    0.3812565765870550    0.1186925222538639 Sc
   0.6226998273575107    0.1264095134747859    0.1279405908840028 Sc
   0.6172804698590474    0.3702054036500768    0.3706936868173815 Sc
   0.8750252578481895    0.6231134563825051    0.8746949763446066 Sc
   0.8762554428962227    0.8835834186489923    0.6295822866575000 Sc
   0.6236485843770776    0.6283318150324131    0.6271931051645260 Sc
   0.3850545219624573    0.1137397272383142    0.1232744984522772 Se
   0.6167992397826120    0.3841912923776004    0.6168627211216793 Se
   0.6121311810128258    0.1130200078572476    0.8864626865187962 Se
   0.3836492439341619    0.3803464588079193    0.3814997588905504 Se
   0.3597804169585381    0.1308349689173226    0.6364502093266091 Se
   0.1335445986757961    0.8615854872668873    0.1300828923629495 Se
   0.1337071853641840    0.1277547399782211    0.8682419549426175 Se
   0.3666430265498329    0.8664913945321631    0.3656424226944822 Se
   0.3829405694122380    0.6172972848316948    0.6170529267177635 Se
   0.6154045076697018    0.8737187332862605    0.1167772928032786 Se
   0.6177130483932201    0.6184226471502637    0.3817472053007627 Se
   0.3746724682659863    0.8798423595655680    0.8857553020695245 Se
   0.3683805172193636    0.6343354559928894    0.1345720313831284 Se
   0.1280156893581664    0.3754140058691396    0.6285926100270349 Se
   0.1274035160777825    0.6401955835266997    0.3695676893546694 Se
   0.3670471319556231    0.3667775763278241    0.8674690954269230 Se
   0.8806752087837337    0.1140715873285306    0.6080929723704052 Se
   0.1216702309095049    0.3790957516349034    0.1084420773507887 Se
   0.1201539437622940    0.1069411095963249    0.3849424161143396 Se
   0.8791914888216389    0.3813102072765417    0.8812080140255804 Se
   0.8666281413423739    0.1325809923660113    0.1327274613568332 Se
   0.6324737812878020    0.8639816784396350    0.6346240774113084 Se
   0.6357529942929543    0.1399568955437818    0.3739561508725324 Se
   0.8667035665957662    0.8631919629553771    0.8647482790050651 Se
   0.8839264275735855    0.6264446291557603    0.1133574900234430 Se
   0.1179102431370992    0.8897854659197034    0.6138340292169799 Se
   0.1162186561091455    0.6182467251551224    0.8854311401150317 Se
   0.8836241057028099    0.8826387607309949    0.3827262021644802 Se
   0.8675490789869374    0.6308068767662417    0.6306811032909354 Se
   0.6404889404764499    0.3736192946435052    0.1330092496834012 Se
   0.6315569721451992    0.6327609275324001    0.8667226283690141 Se
   0.8623333173346172    0.3645567665272315    0.3689227389244616 Se
