Mg7 Sc16 Se32
1.0
  11.1003847944368736    0.0000000000000000    0.0000000000000000
   0.0000000000000000   11.1003847944368736    0.0000000000000000
  -0.0000000000000000   -0.0000000000000000   11.1003847944368736
Mg Sc Se
7 16 32
direct
   0.5001929114386694    0.0002818360687560    0.4992256481767581 Mg
   0.2566000436494113    0.7518233217403737    0.7513197920057565 Mg
   0.4859157171729609    0.5030291216481922    0.9983821523448938 Mg
   0.7532807126636153    0.2539949962999803    0.7437424541981315 Mg
   0.9928197255266670    0.9993910436127238    0.0069972454990513 Mg
   0.7536356742991581    0.7479507821370165    0.2397388437118647 Mg
   0.9993111560718883    0.4912372377670122    0.4979489325575452 Mg
   0.1250003098339406    0.8750058398496178    0.3749992053018631 Sc
   0.3863325141559621    0.1304222196596041    0.8813758139357707 Sc
   0.3782892738835473    0.3694439938510249    0.6338818431968405 Sc
   0.1245463504667852    0.1391563720387168    0.6193791630521709 Sc
   0.1130581200593280    0.3682043732697433    0.8662516907996217 Sc
   0.3777672703162406    0.6286807499035107    0.3785578432847801 Sc
   0.3897354094068314    0.8769378456355346    0.1311237027791669 Sc
   0.1226120701536712    0.6250513974968598    0.1331514511211171 Sc
   0.6322080477290913    0.8868478388013137    0.8702249328224556 Sc
   0.8731250772880146    0.1276887275002837    0.3761507849294588 Sc
   0.8736427668629074    0.3755796508484205    0.1256683966431174 Sc
   0.6235298693019546    0.1231723986902473    0.1271588913339643 Sc
   0.6250658136471438    0.3748172606291261    0.3752563485209376 Sc
   0.8758877037467052    0.6255758620086378    0.8751268931758658 Sc
   0.8747899038567306    0.8823180364187302    0.6267229360988701 Sc
   0.6296584826958966    0.6294941597760869    0.6244164023700999 Sc
   0.3851210795174453    0.1299254036444170    0.1178166167193704 Se
   0.6145369932809942    0.3834669631815847    0.6128485080374096 Se
   0.6167013930199071    0.1146757095303159    0.8776271874006357 Se
   0.3931056272252563    0.3734198425515228    0.3890287630537285 Se
   0.3698945094511447    0.1403701846415443    0.6200628777503031 Se
   0.1363544587764588    0.8699624127954615    0.1205689803933848 Se
   0.1255961239026431    0.1348323614318219    0.8726762602549208 Se
   0.3817877411175249    0.8697243900102227    0.3663513915872529 Se
   0.3880098791808220    0.6187193325580993    0.6176915045675446 Se
   0.6246107638305538    0.8921169822496948    0.1175097063102998 Se
   0.6213148494706948    0.6123361600957645    0.3976693558263706 Se
   0.3793152532212287    0.8700704268210403    0.8877735731574979 Se
   0.3673253882342845    0.6444232741001065    0.1400638345745706 Se
   0.1335540488654855    0.3593068728806809    0.6315615388009774 Se
   0.1274518138564875    0.6335518178942370    0.3601739871383698 Se
   0.3643400963337296    0.3722038172215372    0.8653967459230202 Se
   0.8838736677616851    0.1194861948987229    0.6228078909155090 Se
   0.1153304239041091    0.3830840575561986    0.1172046562878260 Se
   0.1173933622676663    0.1177369413335763    0.3832497440971733 Se
   0.8853396765540447    0.3947520983237542    0.8925320340973167 Se
   0.8717630914565417    0.1298223024934441    0.1287574473908959 Se
   0.6293862390755446    0.8718101663683917    0.6381184106254947 Se
   0.6440098688728257    0.1325844253816650    0.3654290411713083 Se
   0.8631796695495586    0.8600372151504362    0.8624114514129640 Se
   0.8783416222848357    0.6192088757814888    0.1200271159020181 Se
   0.1150241034607048    0.8844547736324221    0.6171536435562308 Se
   0.1262267523480711    0.6245049708455966    0.8952906895022540 Se
   0.8842473389867856    0.8836880541401765    0.3751617259386604 Se
   0.8708185054547724    0.6377176105982562    0.6366111736630337 Se
   0.6286987747899704    0.3681558603699188    0.1303565659433506 Se
   0.6310051417904480    0.6352415502283633    0.8654271266988441 Se
   0.8753936063403160    0.3806677691762513    0.3727579336708560 Se
