Mg7 Sc16 Se32
1.0
  11.1003847944368736    0.0000000000000000    0.0000000000000000
   0.0000000000000000   11.1003847944368736    0.0000000000000000
  -0.0000000000000000   -0.0000000000000000   11.1003847944368736
Mg Sc Se
7 16 32
direct
   0.4997062527549982    0.0019406829060041    0.4999743762782589 Mg
   0.2543156733821429    0.7505658748423963    0.7542053515480136 Mg
   0.4955844274286089    0.4973376586620427    0.9990419351680179 Mg
   0.7477563718030776    0.2529087315861066    0.7525474202995713 Mg
   0.0012220398166386    0.9992278867938363    0.0025894469600415 Mg
   0.7525162668199201    0.7496931496354414    0.2478637072879538 Mg
   0.0001322926372167    0.5002225699039728    0.5065014192978865 Mg
   0.1231433036540124    0.8730940579882370    0.3746932810776193 Sc
   0.3751189983956115    0.1235943216758479    0.8746895198157453 Sc
   0.3771962120513478    0.3707010944022553    0.6238905536235171 Sc
   0.1265535364680487    0.1242630477105900    0.6247427964898190 Sc
   0.1224923147917105    0.3744660283643162    0.8748404054391344 Sc
   0.3694274629011088    0.6204388529952647    0.3736330901802019 Sc
   0.3787048421984336    0.8714734200144859    0.1245836914934614 Sc
   0.1254761599006652    0.6187298213323101    0.1288553327555772 Sc
   0.6266392362223595    0.8728975693448002    0.8797735480839634 Sc
   0.8754113455967258    0.1245520285003531    0.3749959511249292 Sc
   0.8749156750941930    0.3750623036181781    0.1250657603236132 Sc
   0.6268769673533837    0.1181424291042672    0.1260116279149129 Sc
   0.6236683609201142    0.3763357957581005    0.3709562146000955 Sc
   0.8785394171076845    0.6263899338641581    0.8813957612941379 Sc
   0.8744543461017384    0.8746700175888122    0.6263249882436103 Sc
   0.6249689001778020    0.6246659430466017    0.6262994373896438 Sc
   0.3831634984387346    0.1160309328972708    0.1178141148047656 Se
   0.6193241499164280    0.3791031871016909    0.6179100779819438 Se
   0.6170545932876637    0.1172422338122956    0.8825330106413880 Se
   0.3859491989313726    0.3823308572611833    0.3853775188154587 Se
   0.3668591588533892    0.1326405341268277    0.6331875746127834 Se
   0.1312845843747402    0.8665367717117470    0.1300940493268237 Se
   0.1356199057101712    0.1320857350979504    0.8669013922563633 Se
   0.3648552440218067    0.8633845226011039    0.3708281318465039 Se
   0.3799930320046048    0.6226512015511606    0.6165829953460452 Se
   0.6161325994748974    0.8841838777702717    0.1161818706244232 Se
   0.6202024086769224    0.6175372993938322    0.3868513247797945 Se
   0.3791624523476450    0.8821405895178992    0.8842238163889912 Se
   0.3688858998642696    0.6319947398001298    0.1399614734614773 Se
   0.1346625277361420    0.3650907733537718    0.6317945772029593 Se
   0.1292124099572574    0.6349558080920009    0.3664255405828251 Se
   0.3659436331792500    0.3683194971742662    0.8629866397073698 Se
   0.8852273157010628    0.1191034716043754    0.6163846055813785 Se
   0.1123637469591766    0.3873863103243882    0.1145168018660693 Se
   0.1143845630895238    0.1177109646278899    0.3846737830228265 Se
   0.8817463488692348    0.3843377245301187    0.8872763197260716 Se
   0.8644892322459365    0.1339377093608677    0.1361755347240644 Se
   0.6321122811662586    0.8683407646113812    0.6323704597259285 Se
   0.6278642542796883    0.1360812580897457    0.3658450650094953 Se
   0.8649556364531755    0.8699911287762558    0.8637642904873077 Se
   0.8831800473078307    0.6168672912162566    0.1174568708618881 Se
   0.1162588649819624    0.8866103174827578    0.6168561867506621 Se
   0.1184440077104752    0.6193026359126178    0.8838765375378921 Se
   0.8829541939394930    0.8829190728969475    0.3827677936763998 Se
   0.8658522527583096    0.6285541295780173    0.6339992725745514 Se
   0.6328142943609454    0.3671740734452444    0.1328693009006676 Se
   0.6323669853416582    0.6321288358194510    0.8660159415245882 Se
   0.8698523122576250    0.3677122652205667    0.3656581863378252 Se
