Mg7 Sc16 Se32
1.0
  11.1003847944368736    0.0000000000000000    0.0000000000000000
   0.0000000000000000   11.1003847944368736    0.0000000000000000
  -0.0000000000000000   -0.0000000000000000   11.1003847944368736
Mg Sc Se
7 16 32
direct
   0.4968059132600701    0.9931614617687748    0.4843105746440127 Mg
   0.2208132691394623    0.2244922421488848    0.1688614401213214 Mg
   0.4863068128665378    0.5081000912876794    0.9961995918895552 Mg
   0.7289173421232152    0.2403446278022366    0.7545016175072622 Mg
   0.9992885202226773    0.9932719275570447    0.0026746775275284 Mg
   0.7630305778530960    0.7406726960472156    0.2307879448675111 Mg
   0.0002249249767752    0.5022359786639831    0.5001454078186179 Mg
   0.1004995488078397    0.8711855472211392    0.3753627252235900 Sc
   0.3715343349859875    0.1115328715830701    0.8735733393957893 Sc
   0.3752244107483524    0.3707572251048505    0.6253939591147680 Sc
   0.1184078968691447    0.1260036290005009    0.6277456408493398 Sc
   0.1354574152931077    0.3788903340813336    0.8747607466344786 Sc
   0.3696760144987331    0.6310440043033407    0.3678478167242991 Sc
   0.3851537279778806    0.8733560895868959    0.1206747109456782 Sc
   0.1245858367285888    0.6311958136401847    0.1120485558781222 Sc
   0.6212375036148490    0.8782117809822689    0.8732901099577959 Sc
   0.8702153257268104    0.1156227649647446    0.3745589691071274 Sc
   0.8613639180450882    0.3689357437685603    0.1051434589224929 Sc
   0.6108319710576950    0.1119215335270392    0.1294614301574877 Sc
   0.6232828753771971    0.3776901124199686    0.3856483655025493 Sc
   0.8615191094643090    0.6190961212951129    0.8803176647038294 Sc
   0.8731089967009671    0.8830804679787101    0.6273462906477357 Sc
   0.6290144507613807    0.6305861082834893    0.6255792881144346 Sc
   0.3792872725511841    0.1291224213209549    0.1182845135105329 Se
   0.6214573264725161    0.4082789225201937    0.6191979080766792 Se
   0.6039709328930386    0.1243786134789449    0.8897911707135798 Se
   0.3818635913466900    0.3830720177389392    0.3836624186686916 Se
   0.3670540226377613    0.1330532663924057    0.6324196378488167 Se
   0.1396408542458543    0.8605008352674295    0.1371703017291666 Se
   0.1456173940779410    0.1276023050395025    0.8715602983971554 Se
   0.3703689378249279    0.8590477386497900    0.3798265763734302 Se
   0.3833359612860010    0.6167762430902398    0.6104148040591122 Se
   0.6176329187168168    0.8819419454663007    0.1162822660011541 Se
   0.6220717781173298    0.6329514794532458    0.3686164722805087 Se
   0.3824976690000425    0.8812178563977678    0.8836881798642973 Se
   0.3814492404407026    0.6252921594015495    0.1361772591017071 Se
   0.1238958610667081    0.3704701144678139    0.6334903618756027 Se
   0.1274327050869259    0.6224637528387920    0.3842670854145200 Se
   0.3744197068241976    0.3594325147959668    0.8657289188239060 Se
   0.8850455870716111    0.1168427585175476    0.6152878159741137 Se
   0.1131233283800427    0.3837860096054491    0.1159054818724949 Se
   0.1182055907208501    0.1172635144901965    0.3803751165265903 Se
   0.8842100253507968    0.3708017643092335    0.8895557869369277 Se
   0.8632899256784162    0.1516986368499058    0.1459637840637762 Se
   0.6278667644994683    0.8601966782507802    0.6249894068671751 Se
   0.6323415521651248    0.1414199989619017    0.3461263646700614 Se
   0.8623545822094759    0.8675362488938932    0.8866450866143257 Se
   0.8715499078687940    0.6234024346647193    0.1001533647983850 Se
   0.1112055891210283    0.8964387634424493    0.6278709610335742 Se
   0.1255368445145377    0.6211644490349773    0.8704803663502867 Se
   0.8796075594279458    0.8950944239781694    0.3870115503113058 Se
   0.8858214963271269    0.6454253607368637    0.6384972075615557 Se
   0.6299475963559069    0.3587908903063018    0.1294594138064268 Se
   0.6328061105581760    0.6324345938427421    0.8672263257655374 Se
   0.8625132796449910    0.3664701960450895    0.3715537548485561 Se
