Mg7 Sc16 Se32
1.0
  11.1003847944368736    0.0000000000000000    0.0000000000000000
   0.0000000000000000   11.1003847944368736    0.0000000000000000
  -0.0000000000000000   -0.0000000000000000   11.1003847944368736
Mg Sc Se
7 16 32
direct
   0.5028675475128510    0.0014463340668402    0.4981849032363367 Mg
   0.2488660187139652    0.7614360791501266    0.7507519766469753 Mg
   0.4964235669455606    0.4951722248412698    0.0095434640201843 Mg
   0.7553749958017213    0.2533984548136508    0.7485894012621807 Mg
   0.2419995912270515    0.2840042172583472    0.2701619307301492 Mg
   0.7555314406744185    0.7590533941685881    0.2415657704201374 Mg
   0.0014953108876081    0.4992798430489016    0.4998334871175921 Mg
   0.1347334539906271    0.8757117289661760    0.3741218479953425 Sc
   0.3730881556808171    0.1158391500061167    0.8668634599311770 Sc
   0.3766221445463460    0.3747710302401710    0.6218926964864148 Sc
   0.1290441284104583    0.1148765729640813    0.6182469892287658 Sc
   0.1250321809560313    0.3763952953646801    0.8755090572012534 Sc
   0.3753420595635731    0.6245822186682154    0.3751336416741975 Sc
   0.3870423284765035    0.8687964073780958    0.1242795189573462 Sc
   0.1276391163471350    0.6219957726304854    0.1228810850275818 Sc
   0.6256207910409107    0.8752435593951864    0.8758101158402185 Sc
   0.8739039783466608    0.1209675619845412    0.3805766923264384 Sc
   0.8849996717169041    0.3742984492758551    0.1214996083814412 Sc
   0.6310619268198300    0.1249234289771996    0.1241899370906618 Sc
   0.6214166329212690    0.3769312076931460    0.3797372904314267 Sc
   0.8868898748417612    0.6301152598070271    0.8798903215692229 Sc
   0.8621789289911990    0.8726975981466858    0.6245964361042770 Sc
   0.6279265446245546    0.6235390167442654    0.6292627345274867 Sc
   0.3855152396337020    0.1297084995216028    0.1138940432353983 Se
   0.6152443468276001    0.3797279299493505    0.6147039429223151 Se
   0.6131153051093662    0.1179729889456602    0.8832643129222297 Se
   0.3836860940629305    0.3750591211119831    0.3827333947291696 Se
   0.3574078820764562    0.1376925361418273    0.6313210836653591 Se
   0.1308092671164895    0.8693838473433745    0.1448254024788380 Se
   0.1317952866252761    0.1321313089727928    0.8677726568498894 Se
   0.3728998724711834    0.8687747801857134    0.3667472424523749 Se
   0.3915379598586278    0.6109021721701954    0.6128282715550025 Se
   0.6115572450506145    0.8846829250911239    0.1210930864710987 Se
   0.6194474495009464    0.6169201448030490    0.3829121527116733 Se
   0.3823457313769569    0.8744028475784009    0.8790757593486538 Se
   0.3689668897990053    0.6317978942838045    0.1350831354784187 Se
   0.1420301129567605    0.3694676917555652    0.6236060500853396 Se
   0.1326724622448865    0.6414032500140315    0.3573398252331993 Se
   0.3652146722838586    0.3705732759774696    0.8572049196176013 Se
   0.8792314526235057    0.1093782762069746    0.6128858460780314 Se
   0.1207145339546447    0.3837953082113967    0.1113619692676018 Se
   0.1167517221051273    0.1187847640094743    0.3692149228152404 Se
   0.8840304346722563    0.3904559522849667    0.8902852388417021 Se
   0.8663323356091436    0.1444777758729764    0.1379415921207840 Se
   0.6276651824089865    0.8645593537053079    0.6302280513090256 Se
   0.6298024147063599    0.1281085973734313    0.3699339712499853 Se
   0.8666052575407179    0.8719078244403460    0.8575170040395977 Se
   0.8808440176242249    0.6180186104419085    0.1250646610131536 Se
   0.1180148173101670    0.8825326387708659    0.6165619048298012 Se
   0.1170290345754130    0.6184958250428485    0.8834799393381102 Se
   0.8707323883760156    0.8760808296982356    0.3828085591270394 Se
   0.8719104217293663    0.6361020992193949    0.6441639005074979 Se
   0.6389795113766157    0.3653985325502047    0.1353401483406885 Se
   0.6329296052555992    0.6329316737884475    0.8673187081208412 Se
   0.8665095100767372    0.3678372388736597    0.3662128626374657 Se
