Mg7 Sc16 Se32
1.0
  11.1003847944368736    0.0000000000000000    0.0000000000000000
   0.0000000000000000   11.1003847944368736    0.0000000000000000
  -0.0000000000000000   -0.0000000000000000   11.1003847944368736
Mg Sc Se
7 16 32
direct
   0.5001594719119659    0.9998820156173918    0.5002319645702428 Mg
   0.2528419776705548    0.7536227510321254    0.7496168515893642 Mg
   0.2548040910617014    0.3307874293003001    0.1400141329049020 Mg
   0.7499347568969478    0.2486412494935941    0.7480721149604930 Mg
   0.0012972147643140    0.0013243308499430    0.9978353567306919 Mg
   0.7402723237125932    0.7510406941929805    0.2510067374132831 Mg
   0.0017685338916902    0.5023191290197760    0.4968761200847353 Mg
   0.1241367208037306    0.8769467283548600    0.3765870209117679 Sc
   0.3729788228691573    0.1183677774351547    0.8740995853726912 Sc
   0.3827921290618305    0.3687567972885266    0.6254005869145930 Sc
   0.1226820133178552    0.1188606754051971    0.6280784797226305 Sc
   0.1272317659558306    0.3731084626964900    0.8766266898283914 Sc
   0.3787003510671584    0.6312233018798594    0.3709939757120507 Sc
   0.3701953691489384    0.8741681273468256    0.1296421165032998 Sc
   0.1228952698864842    0.6219453281403450    0.1248514134968958 Sc
   0.6250045070335163    0.8749852148142241    0.8749912365505875 Sc
   0.8766694810733314    0.1290377949434312    0.3687244507132983 Sc
   0.8720625559683387    0.3740624874100503    0.1223508767094858 Sc
   0.6237054242024924    0.1272125677600575    0.1253608772160069 Sc
   0.6230039712409503    0.3686606403535538    0.3721299900403734 Sc
   0.8716428436563356    0.6259650526250508    0.8674188922368804 Sc
   0.8682794027819548    0.8683927134437229    0.6209624725612067 Sc
   0.6305175512042914    0.6318012175203206    0.6242876298067388 Sc
   0.3819786550236197    0.1173677095098685    0.1183106968550173 Se
   0.6095943611659183    0.3804598089762453    0.6177702787729853 Se
   0.6238665861889835    0.1141187283339570    0.8767954132727086 Se
   0.3838368547321910    0.3823118441129398    0.3808316196723589 Se
   0.3660735189671022    0.1323990951833314    0.6326405311000238 Se
   0.1336459241487149    0.8674173214553835    0.1377302774822486 Se
   0.1325342876099768    0.1323538737719253    0.8700917906672490 Se
   0.3694646568009339    0.8687392436994015    0.3690482975500816 Se
   0.3886143723266163    0.6165856995069199    0.6173467960921099 Se
   0.6159212377755997    0.8865139422357550    0.1241365246344165 Se
   0.6224827566142933    0.6222967407480857    0.3817650280276527 Se
   0.3871692404029025    0.8837459361544919    0.8867969784833927 Se
   0.3672744236681152    0.6317923080037732    0.1325618749082938 Se
   0.1250527108472128    0.3713218654332142    0.6329639654006201 Se
   0.1274743917936005    0.6283540075178405    0.3644407462925419 Se
   0.3678652496248380    0.3705308816773418    0.8687972352405678 Se
   0.8871076444875414    0.1116835439867460    0.6182439618602660 Se
   0.1124228457324920    0.3837017709722784    0.1226074289600918 Se
   0.1274830271409090    0.1166283551556488    0.3846671958976604 Se
   0.8816357099230713    0.3794196596435935    0.8857108582066234 Se
   0.8670446131286362    0.1328984000622925    0.1328834546891713 Se
   0.6335052723866261    0.8669072332947882    0.6317281651389586 Se
   0.6277570627235647    0.1276284552614901    0.3639710904408815 Se
   0.8671343749418807    0.8671586273506945    0.8670650664716719 Se
   0.8820194579067693    0.6171744782466335    0.1163268384271341 Se
   0.1183883494734293    0.8816465807852257    0.6177662179758278 Se
   0.1171715317449135    0.6167872856498150    0.8827614103596537 Se
   0.8854893153787518    0.8853130219865087    0.3854772696631669 Se
   0.8669753550406825    0.6331926890554538    0.6331207830401725 Se
   0.6379894559924846    0.3686335322885789    0.1335764431279074 Se
   0.6330458774881802    0.6356179022160062    0.8657777949749771 Se
   0.8643550325075569    0.3670696324611392    0.3662700246416618 Se
