Mg7 Sc16 Se32
1.0
  11.1003847944368736    0.0000000000000000    0.0000000000000000
   0.0000000000000000   11.1003847944368736    0.0000000000000000
  -0.0000000000000000   -0.0000000000000000   11.1003847944368736
Mg Sc Se
7 16 32
direct
   0.4906759846359423    0.0070391883044156    0.4955814244570763 Mg
   0.2501037090338742    0.7500479228449576    0.7499471064796129 Mg
   0.5032381186963668    0.5005230166930184    0.9968573583523649 Mg
   0.7555435242042611    0.2625724737518537    0.7479407389270122 Mg
   0.1596409259915397    0.2370691431842613    0.2145471950548283 Mg
   0.7608918189194098    0.7600647281453143    0.2641001914542451 Mg
   0.0049184900947671    0.4885933552341482    0.5020605717987124 Mg
   0.1250814095783101    0.8748355892945744    0.3750864888382258 Sc
   0.3619179381083240    0.1218746918135725    0.8734856186277309 Sc
   0.3831384252087062    0.3624028086035980    0.6284932677031868 Sc
   0.1265127367875385    0.1238149562724539    0.6262014560964826 Sc
   0.1142657484492203    0.3868422539406061    0.8822549083631960 Sc
   0.3636535886987487    0.6337863016276607    0.3805842479252521 Sc
   0.3768568524531180    0.8731957184692212    0.1268091058986117 Sc
   0.1227465154644936    0.6126658405583918    0.1280592761736099 Sc
   0.6275629244759056    0.8798663116756642    0.8701974989510671 Sc
   0.8801458691825202    0.1368685414081928    0.3663216216612321 Sc
   0.8750889785199866    0.3753195203763250    0.1248828039622559 Sc
   0.6377400106316385    0.1279290862804363    0.1387575751464560 Sc
   0.6236197723438917    0.3756828473275154    0.3699420974715413 Sc
   0.8798942016969554    0.6237458941272951    0.8828217886402439 Sc
   0.8645663949567831    0.8785843582406759    0.6227694334451319 Sc
   0.6242369827795470    0.6063937279552437    0.6364641638022074 Sc
   0.3742960302816544    0.1212924160632779    0.1254423534239732 Se
   0.6177620761905411    0.3779729313890005    0.6167723292959710 Se
   0.6100318411800708    0.1278939119224413    0.8707697729192588 Se
   0.3818338662877122    0.3851505978919331    0.3746796481121700 Se
   0.3659031055201047    0.1366723170514989    0.6267390071339523 Se
   0.1324627294875192    0.8727629184342595    0.1248733961104815 Se
   0.1324968103303354    0.1339818218587892    0.8664033967075144 Se
   0.3454849476716612    0.8570246880302828    0.3716880576030394 Se
   0.3868746913459348    0.6137523915845318    0.6208778164345630 Se
   0.6170628248224679    0.8837734638977971    0.1181087135365496 Se
   0.6215440476386487    0.6021128426915225    0.3742365593666523 Se
   0.3672433596705552    0.9018065346525487    0.8735175130803328 Se
   0.3690575576180603    0.6325763448659347    0.1387483155322439 Se
   0.1253853949525301    0.3662248912304729    0.6492489477049247 Se
   0.1380250120084636    0.6536703730006459    0.3632409748688495 Se
   0.3698862960922190    0.3690409063674923    0.8647353536699577 Se
   0.8847457527222912    0.1222622495187603    0.6188411820638793 Se
   0.1190585696099773    0.3952328889169878    0.1371173365424146 Se
   0.1026044411672034    0.1102916614541799    0.3902816874173865 Se
   0.8829557694968904    0.3828782537147404    0.8827757354596260 Se
   0.8673553135671543    0.1340417213542331    0.1330445352345179 Se
   0.6263060306125841    0.8758229116283984    0.6164421370776441 Se
   0.6402801576473734    0.1505443640036812    0.3655520053274680 Se
   0.8688152208116775    0.8638082048781124    0.8654009935258720 Se
   0.8634429456966732    0.6146198086824319    0.1252944524910688 Se
   0.1169246835954194    0.8836689447833378    0.6172003234019882 Se
   0.1107747397630750    0.6279604212297631    0.8881778945217427 Se
   0.8626481789917486    0.8797264534021315    0.3961005226093851 Se
   0.8655050653704305    0.6342747950322958    0.6345793051759467 Se
   0.6360254753060458    0.3471966514855064    0.1319834672994796 Se
   0.6281113338451116    0.6406721888092188    0.8673373743702384 Se
   0.8664640644111671    0.3760286854532366    0.3737602558734580 Se
