Mg7 Sc16 Se32
1.0
  11.1003847944368736    0.0000000000000000    0.0000000000000000
   0.0000000000000000   11.1003847944368736    0.0000000000000000
  -0.0000000000000000   -0.0000000000000000   11.1003847944368736
Mg Sc Se
7 16 32
direct
   0.4989102911606255    0.0002858261293047    0.5000153387705618 Mg
   0.2597275126520356    0.2472141457136637    0.2580888564145027 Mg
   0.5106919076558849    0.4836215103421741    0.0115134052745472 Mg
   0.7392960990308224    0.2653405777253734    0.7424117914739122 Mg
   0.0117900540931974    0.9913620188392611    0.0014684367785367 Mg
   0.7632241593343416    0.7596887093739091    0.2393661496030103 Mg
   0.0014590877638951    0.4986414030007723    0.4992839864443693 Mg
   0.1211629152523778    0.8817338147101934    0.3794197606541023 Sc
   0.3812299051259409    0.1123075450439924    0.8820279883042758 Sc
   0.3575835542783313    0.3702980071338857    0.6088301273666415 Sc
   0.1274341306767212    0.1306194597894177    0.6211074235062323 Sc
   0.1084075434903079    0.3556234055346287    0.8736236655938013 Sc
   0.3543375293180837    0.6358257862055651    0.3639964466452681 Sc
   0.3773816207914968    0.8700834998106013    0.1273558092496101 Sc
   0.1211546918260984    0.6172904345506348    0.1302900392203335 Sc
   0.6296950397664997    0.8772304166088878    0.8683845204122214 Sc
   0.8762722242326710    0.1295571874947584    0.3808336091879093 Sc
   0.8749832864139889    0.3853736201406934    0.1310022480652105 Sc
   0.6252139723500304    0.1279164325253581    0.1286438699548920 Sc
   0.6184190475780963    0.3713799419798893    0.3969191862498675 Sc
   0.8762060621478571    0.6225918216445386    0.8737000323365093 Sc
   0.8608712639778787    0.8652632589950855    0.6155681668188875 Sc
   0.6155809805072793    0.6439992147774547    0.6244808214304634 Sc
   0.3764907101637199    0.1040877414123455    0.1393018328904095 Se
   0.6257458093591972    0.3797380647338264    0.6213875297479174 Se
   0.6004788893596275    0.1117444953686583    0.8757998666815044 Se
   0.3839307171460886    0.3909005847506224    0.3772491169110985 Se
   0.3707306689853939    0.1064824818103363    0.6358825377220206 Se
   0.1292784919539730    0.8706766511778425    0.1398715535419517 Se
   0.1171157963578788    0.1325980700579307    0.8519891973503705 Se
   0.3799872912697725    0.8616888058948502    0.3456747910121330 Se
   0.3788408510945195    0.6181792300370202    0.6185669840195698 Se
   0.5942996531202519    0.8740697247046098    0.1249628763315124 Se
   0.6065487411534584    0.6124460835327658    0.3828729241341818 Se
   0.3774020730730665    0.8803390949026413    0.8583822239869359 Se
   0.3828369925037658    0.6215642323952195    0.1317924269833135 Se
   0.1321697883520311    0.3677029086834372    0.6325430199131901 Se
   0.1342149836199680    0.6338131589228075    0.3656893076515579 Se
   0.3885285254582877    0.3527867994758964    0.8614713973004275 Se
   0.8747688294665026    0.1159823253046205    0.6208539705691454 Se
   0.1104040113229340    0.3853168486361696    0.1309686635234623 Se
   0.1242959749696249    0.1145902313433968    0.3916158442350325 Se
   0.8847635370660970    0.3841682611354988    0.8863793160119602 Se
   0.8727694289272226    0.1427972383844903    0.1369986132471437 Se
   0.6361263175239853    0.8592721413166785    0.6438915982984977 Se
   0.6200823063589327    0.1404304586531585    0.3457586891120692 Se
   0.8576024994694946    0.8677394791631529    0.8548749318207737 Se
   0.8697317209209229    0.6253016199583976    0.1330114481103951 Se
   0.1166824437175449    0.9016193955095150    0.6115031156804599 Se
   0.1118935230911963    0.6007331881062266    0.8948200686651790 Se
   0.8768124790589645    0.8688498187078920    0.3621994373788129 Se
   0.8662800873014945    0.6342201655370019    0.6374598862228462 Se
   0.6142839857035816    0.3766269302091228    0.1352498975124094 Se
   0.6460489908988394    0.6334431979108627    0.8657188087519235 Se
   0.8732805462284863    0.3760137415184872    0.3714566286716677 Se
