Mg7 Sc16 Se32
1.0
  11.1003847944368736    0.0000000000000000    0.0000000000000000
   0.0000000000000000   11.1003847944368736    0.0000000000000000
  -0.0000000000000000   -0.0000000000000000   11.1003847944368736
Mg Sc Se
7 16 32
direct
   0.4924039174630055    0.9910726729517462    0.4982447233303884 Mg
   0.2487255140462058    0.7484481595972630    0.7493171845370593 Mg
   0.5025809669646558    0.5009908651051459    0.9993188161343500 Mg
   0.7452751996769759    0.2434115122368843    0.7450720415536225 Mg
   0.1369234182775526    0.2449421673996507    0.2160715104410472 Mg
   0.7534765393100169    0.7644405627521812    0.2589640943166777 Mg
   0.9986649803536378    0.4986379132512522    0.5002611517186162 Mg
   0.1284067533967074    0.8697382933014116    0.3853964555023822 Sc
   0.3796888597970304    0.1329050519153152    0.8636342330041545 Sc
   0.3751468602952467    0.3854955892408409    0.6300369337513907 Sc
   0.1154474639746103    0.1207991897999477    0.6151734538123793 Sc
   0.1233030846932439    0.3767713765674836    0.8625093457641346 Sc
   0.3738955941343703    0.6259163858488973    0.3774178980995258 Sc
   0.3809078384164323    0.8679071656636960    0.1325529029805170 Sc
   0.1266358641374113    0.6323098810825293    0.1195653741794070 Sc
   0.6247062286459488    0.8765690063530465    0.8878564921681844 Sc
   0.8678389603838753    0.1274844438419970    0.3780287981067693 Sc
   0.8751131787630910    0.3832084704839953    0.1264455771745735 Sc
   0.6225269156834176    0.1258600368149892    0.1247100231824757 Sc
   0.6236370880856037    0.3703789782905314    0.3684887938679583 Sc
   0.8743433556931498    0.6260688132340264    0.8746455310634491 Sc
   0.8748309873035728    0.8691979696195842    0.6220544858401958 Sc
   0.6327926859199695    0.6269921823988159    0.6106620852041099 Sc
   0.3838080765956818    0.1171580925206740    0.1195106977207885 Se
   0.6045305112691605    0.3760206923734846    0.6223876927217152 Se
   0.6242333781378759    0.1312935312266421    0.8760622977998985 Se
   0.3764515485629421    0.3831044613209497    0.3786924783018208 Se
   0.3598198060908649    0.1323314914178467    0.6280412296119809 Se
   0.1234014746152960    0.8572755603341397    0.1357436544279957 Se
   0.1371189174991938    0.1298082205721722    0.8770874988098014 Se
   0.3773392609865187    0.8552909027968320    0.3642730217182879 Se
   0.3818956705219230    0.6162575625351945    0.6199511294420567 Se
   0.6037831788716990    0.8844566905789789    0.1251525714873386 Se
   0.6123957283118950    0.6285742375331312    0.3764308651202030 Se
   0.3835634589567452    0.8838161243667956    0.8839934979178781 Se
   0.3704266907042680    0.6391156677841846    0.1323104640507476 Se
   0.1272516270275827    0.3624051073380735    0.6420006351858063 Se
   0.1377982024859817    0.6306570973445919    0.3731616250450072 Se
   0.3644699566002592    0.3605097005228614    0.8797421166051754 Se
   0.8798762238422360    0.1096705201317236    0.6180547812496697 Se
   0.1191736720439229    0.3833741183102801    0.1176574292794131 Se
   0.1217649004024007    0.1112107068382300    0.3733201775370859 Se
   0.8780333123283026    0.3954604508899504    0.8748825252803143 Se
   0.8694682010216808    0.1318912826290242    0.1307388482297542 Se
   0.6305323368784647    0.8713053416304011    0.6350682016254642 Se
   0.6324523802124560    0.1318926115309950    0.3695061068986917 Se
   0.8659303837805792    0.8657949953511439    0.8681018992723279 Se
   0.8891615864576324    0.6155110952030672    0.1165312428625669 Se
   0.1202012589501546    0.8700622832395519    0.6059949585936584 Se
   0.1161373227945456    0.6169863417613856    0.8771664582025436 Se
   0.8825567581554008    0.8819206212829318    0.3830739599417861 Se
   0.8667925504049264    0.6323531537358200    0.6335560195566471 Se
   0.6336635845592458    0.3644770126084049    0.1341024269638723 Se
   0.6275549152175344    0.6268291490002035    0.8799641358117333 Se
   0.8709438219689269    0.3669691195463493    0.3689397762525398 Se
