Mg7 Sc16 Se32
1.0
  11.1003847944368736    0.0000000000000000    0.0000000000000000
   0.0000000000000000   11.1003847944368736    0.0000000000000000
  -0.0000000000000000   -0.0000000000000000   11.1003847944368736
Mg Sc Se
7 16 32
direct
   0.2076575273123886    0.2488507109937441    0.2556484365971833 Mg
   0.2504346320431054    0.7502871535539398    0.7515152152084242 Mg
   0.4982831033812297    0.5077084895763734    0.9981260623834958 Mg
   0.7484146867637911    0.2489910488464983    0.7481047526251648 Mg
   0.0068393496342902    0.9917771400865396    0.0074657152280790 Mg
   0.7514087401987318    0.7504879431263572    0.2510010323398343 Mg
   0.9954936710007547    0.5086279968151067    0.5053491206569312 Mg
   0.1242236591048274    0.8750665345708692    0.3771786544224315 Sc
   0.3727780627589807    0.1227545748566259    0.8710946183955743 Sc
   0.3759003557298957    0.3792515410204573    0.6209063971374480 Sc
   0.1299935997223282    0.1225408847653004    0.6299323726790912 Sc
   0.1250078092487124    0.3762827882734837    0.8747620793148038 Sc
   0.3763022750528748    0.6187369498262753    0.3718354499697640 Sc
   0.3749902677276429    0.8745813159423966    0.1247273715261133 Sc
   0.1322993142071591    0.6278103162922020    0.1232599122318990 Sc
   0.6180085517872613    0.8762777787321462    0.8747549681840491 Sc
   0.8777561896636067    0.1239492784558619    0.3687246238561269 Sc
   0.8780283048379436    0.3792129837203210    0.1303160055784470 Sc
   0.6250682073166574    0.1161655503087573    0.1153282459122270 Sc
   0.6250211940192724    0.3738879313967273    0.3754461320589000 Sc
   0.8675699601383696    0.6188504976290551    0.8724855487425700 Sc
   0.8748517212399689    0.8653820075162602    0.6344638358521998 Sc
   0.6349353924043150    0.6223634837852151    0.6242130609636227 Sc
   0.3822795571896008    0.1163641413096250    0.1160031508752953 Se
   0.6167035219236920    0.3821739315229965    0.6178682401267783 Se
   0.6151838191243530    0.1164729931160468    0.8826562348051196 Se
   0.3821573116401109    0.3841595538552668    0.3798138849484198 Se
   0.3635718611652805    0.1444348237304022    0.6262051910074531 Se
   0.1304811953597033    0.8655453338665071    0.1314042919767628 Se
   0.1289466069964011    0.1359116590136336    0.8657425301432453 Se
   0.3646151265567500    0.8590576381245373    0.3633082949080961 Se
   0.3828678707085326    0.6171107556939966    0.6171261519403501 Se
   0.6190500136056182    0.8887182419957108    0.1220321946659683 Se
   0.6135374656246922    0.6096801966018357    0.3852112309824107 Se
   0.3826465717758379    0.8831368921444049    0.8831262658123635 Se
   0.3576710378768255    0.6359559101339538    0.1356697702773269 Se
   0.1238449656595903    0.3652923825828678    0.6402715912631594 Se
   0.1331502273462717    0.6329590180601037    0.3669395117749074 Se
   0.3737132334761311    0.3694704179880738    0.8571346510589718 Se
   0.8827278738362866    0.1161284885589557    0.6178592538480440 Se
   0.1112535325572570    0.3890891634461583    0.1133021372987154 Se
   0.1172659898882298    0.1138020653703491    0.3795151919421426 Se
   0.8849227979862242    0.3720548990495693    0.8850635941431507 Se
   0.8628514312812160    0.1301965040365908    0.1347242049476376 Se
   0.6353541314338234    0.8642765039962013    0.6338031315103523 Se
   0.6372685091636826    0.1367613399503719    0.3692484245761727 Se
   0.8689009440075365    0.8691223130021721    0.8669329976423272 Se
   0.8778809515919203    0.6220115789389407    0.1206626985064359 Se
   0.1107308364912685    0.8924980968529272    0.6142169465534382 Se
   0.1182105981810147    0.6098355859387383    0.8800218076766614 Se
   0.8812496204100961    0.8814900057299836    0.3763836140387173 Se
   0.8675634220404812    0.6319622415269591    0.6343969406049638 Se
   0.6391990971398489    0.3652110041955797    0.1214130806042091 Se
   0.6322736233319998    0.6330664798867373    0.8681655915485958 Se
   0.8659555774184671    0.3719659666241454    0.3632008880369360 Se
