Mg7 Sc16 Se32
1.0
  11.1003847944368736    0.0000000000000000    0.0000000000000000
   0.0000000000000000   11.1003847944368736    0.0000000000000000
  -0.0000000000000000   -0.0000000000000000   11.1003847944368736
Mg Sc Se
7 16 32
direct
   0.5014025478964705    0.9992919157630801    0.5024673968444952 Mg
   0.2500073170963958    0.2500036463871652    0.2500025242348732 Mg
   0.4999181543503334    0.4984980134960895    0.0001841727152190 Mg
   0.7502264555015603    0.2511955438828143    0.7531999558142282 Mg
   0.0004977410997427    0.9966587055724141    0.0006664226923758 Mg
   0.7500607537208804    0.7491153970231947    0.2483768122510418 Mg
   0.9996878602980399    0.4999758004864063    0.4998739011533319 Mg
   0.1250309248070579    0.8748960301052459    0.3750269926609791 Sc
   0.3733353451058020    0.1247199532060324    0.8779763325787491 Sc
   0.3764817468614304    0.3756312137847961    0.6234561242182913 Sc
   0.1247719523233300    0.1256891458722172    0.6248028072437347 Sc
   0.1257012298149717    0.3732210938831922    0.8742843698687222 Sc
   0.3766047357812232    0.6245368854340723    0.3758696110059938 Sc
   0.3752713616441888    0.8730726559650511    0.1248811650611995 Sc
   0.1279988639333555    0.6235979490282451    0.1244409434073537 Sc
   0.6253521916409831    0.8746894633397798    0.8761043748219218 Sc
   0.8752246433406452    0.1248059920051317    0.3748419309412224 Sc
   0.8736926233703980    0.3766459322347690    0.1227923539947988 Sc
   0.6246755983784007    0.1239862559969367    0.1266164623445541 Sc
   0.6268395007646150    0.3758552529820917    0.3723519385942032 Sc
   0.8752293481998092    0.6258599190672560    0.8745583239269348 Sc
   0.8753020923498109    0.8737989003862188    0.6231839933743077 Sc
   0.6248107694231627    0.6251332864142276    0.6245963275744943 Sc
   0.3833599751088676    0.1137201625663730    0.1175540533080765 Se
   0.6154793960604589    0.3819399460912419    0.6174376269486997 Se
   0.6182604261461855    0.1133693184290550    0.8828516360938119 Se
   0.3823712621428584    0.3833552728189802    0.3830118948301121 Se
   0.3662438603461950    0.1319909484160624    0.6323525235318159 Se
   0.1289804074655005    0.8692845522524472    0.1333974309386171 Se
   0.1331856129146145    0.1320153700497743    0.8663248582847074 Se
   0.3670625675084862    0.8680599008725484    0.3666184014438694 Se
   0.3841387697639668    0.6196123635637466    0.6156021568196473 Se
   0.6171307287809631    0.8817688966322519    0.1170386690424553 Se
   0.6177653412736041    0.6154988814033537    0.3844188126876137 Se
   0.3826160061288770    0.8788059211482687    0.8834082323858317 Se
   0.3677915695880078    0.6346265809180602    0.1352628985335706 Se
   0.1320683219972424    0.3693671404338812    0.6328898167706046 Se
   0.1325464716814813    0.6291090301256410    0.3658471617559122 Se
   0.3660770647271575    0.3666793072065000    0.8666035003032877 Se
   0.8822819898769851    0.1182807390284346    0.6170462712456346 Se
   0.1162680382968521    0.3820364134052718    0.1165867522322747 Se
   0.1186683591242906    0.1204582036771335    0.3817479649704895 Se
   0.8832778396770059    0.3835797079071345    0.8834780007876963 Se
   0.8669827197247538    0.1327938341962102    0.1329343257773963 Se
   0.6324908684118149    0.8683061548869963    0.6320369123034757 Se
   0.6329073435186221    0.1339666534480621    0.3682004024217220 Se
   0.8671340189777885    0.8683398658597127    0.8668435064995819 Se
   0.8835048383046147    0.6182909086151058    0.1185796475291885 Se
   0.1139612019817885    0.8827265504974758    0.6185166796872063 Se
   0.1172217015790082    0.6153189695802188    0.8828175236291791 Se
   0.8836771367169486    0.8828338707577553    0.3815829757126429 Se
   0.8673448820814015    0.6319763402658469    0.6333885679512545 Se
   0.6308501744787967    0.3664277849672165    0.1325448272702348 Se
   0.6328828941935024    0.6301094349674926    0.8664928053759675 Se
   0.8671624888992896    0.3675297647004587    0.3666364865148371 Se
