Mg7 Sc16 Se32
1.0
  11.1003847944368736    0.0000000000000000    0.0000000000000000
   0.0000000000000000   11.1003847944368736    0.0000000000000000
  -0.0000000000000000   -0.0000000000000000   11.1003847944368736
Mg Sc Se
7 16 32
direct
   0.4999296238664115    0.0000638178077891    0.4997963423163102 Mg
   0.2436724787633070    0.7470870494781705    0.7494345685924126 Mg
   0.5081242339042564    0.4957597223549993    0.9928806930138567 Mg
   0.7505424827340598    0.2425670985705470    0.7570465994455142 Mg
   0.0030167880195900    0.9992962348227837    0.9928431040092646 Mg
   0.7393891109610086    0.7514774177557686    0.2475304085576189 Mg
   0.1480787634621710    0.3692427110750809    0.3502565967674199 Mg
   0.1276923824343801    0.8868115549476140    0.3757278655907926 Sc
   0.3773953262129499    0.1227981594217281    0.8784303841116688 Sc
   0.3659085875274817    0.3759762131586915    0.6250827789656617 Sc
   0.1378668697263477    0.1180954551950217    0.6221390075373671 Sc
   0.1298866131270092    0.3698161507648623    0.8771598196430643 Sc
   0.3686756198255850    0.6241996002089998    0.3793793931927238 Sc
   0.3716760311662373    0.8724664633613871    0.1336461982663303 Sc
   0.1209399683503722    0.6280438065167603    0.1147520985863454 Sc
   0.6192267999650368    0.8777524311085163    0.8859533385061917 Sc
   0.8743437482186592    0.1254646988295331    0.3739720151005012 Sc
   0.8669001251480949    0.3825620112029527    0.1249140992919843 Sc
   0.6304063792915926    0.1141550489217076    0.1214748991684310 Sc
   0.6289624603666525    0.3631761296691225    0.3850445497926189 Sc
   0.8765301030287930    0.6270285650578701    0.8731563573833001 Sc
   0.8761185642252374    0.8730934515699784    0.6278886254191021 Sc
   0.6221551751455395    0.6299103525052054    0.6214202710394346 Sc
   0.3874254638421434    0.1201076980439405    0.1269507643881472 Se
   0.6182108135739753    0.3902960590972418    0.6213534741819476 Se
   0.6197185330568387    0.1257311698604134    0.8843089671266513 Se
   0.3779284557803954    0.3861356700819337    0.3840113818402723 Se
   0.3582266551842013    0.1386487513897108    0.6290981915387510 Se
   0.1389434896980253    0.8569320201402496    0.1353891711157683 Se
   0.1211289019813377    0.1406621942144584    0.8732023827379375 Se
   0.3658100294354425    0.8658870475943710    0.3680178785786676 Se
   0.3817499231158891    0.6179932446911592    0.6165559823191710 Se
   0.6160335500205527    0.8883143623151647    0.1149870867851989 Se
   0.6097672611098163    0.6193135536936782    0.3849428467993626 Se
   0.3829050379257397    0.8834413183894757    0.8802136224542895 Se
   0.3688459900926409    0.6334726235922759    0.1374552112877207 Se
   0.1289947849323270    0.3638777364530580    0.6296379575889305 Se
   0.1247782515124803    0.6441880549762484    0.3602689392465903 Se
   0.3689173816444136    0.3717838578384094    0.8657481697745201 Se
   0.8873033556531683    0.1077555271451161    0.6099230988036290 Se
   0.1193157232734003    0.3832878319498063    0.1228382840536053 Se
   0.1269908637913273    0.1228973247957939    0.3876707234722754 Se
   0.8847893411446495    0.3774423987475438    0.8785426591755844 Se
   0.8703792445092373    0.1292976518822294    0.1399743756387058 Se
   0.6319252656774109    0.8702318870755598    0.6307048157362176 Se
   0.6289609070675899    0.1402174027803783    0.3623640186972909 Se
   0.8718292702930680    0.8670451253661720    0.8583409272572733 Se
   0.8846385625481246    0.6188049514646400    0.1177666893092309 Se
   0.1268539221647309    0.8818251082768152    0.6162875957296062 Se
   0.1238890087459357    0.6143790579086027    0.8814951265543376 Se
   0.8908893050996963    0.8898170504571821    0.3691958333500260 Se
   0.8603251535936232    0.6220786752196715    0.6355022015574318 Se
   0.6379610657514696    0.3743698611100034    0.1273730957851613 Se
   0.6246136300355628    0.6336142888313753    0.8578186023605661 Se
   0.8671709054921746    0.3674546605271641    0.3675864252355434 Se
