Mg7 Sc16 Se32
1.0
  11.1003847944368736    0.0000000000000000    0.0000000000000000
   0.0000000000000000   11.1003847944368736    0.0000000000000000
  -0.0000000000000000   -0.0000000000000000   11.1003847944368736
Mg Sc Se
7 16 32
direct
   0.5000059822252564    0.9999409799357530    0.5000846434861267 Mg
   0.2169009726747580    0.5694695435476544    0.5373813027782821 Mg
   0.5067772023884046    0.4984873522936060    0.0028260417982342 Mg
   0.7470918488799598    0.2506765678568461    0.7530407078167057 Mg
   0.9966309290015833    0.0012174954150805    0.0061523338289760 Mg
   0.7525619033202092    0.7448222280424263    0.2409214284713564 Mg
   0.9924772923218159    0.4973389402487493    0.5053475994299991 Mg
   0.1267029467969608    0.8646906724460313    0.3774211677874252 Sc
   0.3680861272824218    0.1250075018432186    0.8747797213295475 Sc
   0.3716300413144783    0.3731660943509279    0.6218323284872702 Sc
   0.1197251726138345    0.1211671323791274    0.6285220080721096 Sc
   0.1262048594601649    0.3758968572239000    0.8747359603297296 Sc
   0.3676475022825449    0.6229336553482878    0.3713132081028369 Sc
   0.3700260891179561    0.8732762391983480    0.1284372859326459 Sc
   0.1268227012952776    0.6246780122674963    0.1233992908665260 Sc
   0.6260867620234764    0.8756733771676203    0.8806033593721251 Sc
   0.8721420647140061    0.1270620437865116    0.3766131401409107 Sc
   0.8800703007031476    0.3765414553106489    0.1332507482044846 Sc
   0.6275072247356996    0.1260339094087906    0.1267193339258934 Sc
   0.6215115419187274    0.3769493812402677    0.3756341531427456 Sc
   0.8756984943367254    0.6258773512242252    0.8831464024388176 Sc
   0.8738395181177946    0.8733332481266024    0.6261222651507232 Sc
   0.6262456757516348    0.6255061491381936    0.6235186736452121 Sc
   0.3775996910482194    0.1226727604665329    0.1183224390360878 Se
   0.6144013641761994    0.3864509084875941    0.6146950728651022 Se
   0.6231910075903595    0.1203134063041516    0.8834111718083768 Se
   0.3811126587695948    0.3847155520222400    0.3859781412994485 Se
   0.3697420645336920    0.1239349341939324    0.6338654469350667 Se
   0.1316831513880944    0.8666242641244488    0.1302495448250028 Se
   0.1316046353544824    0.1299391451980181    0.8668768241002491 Se
   0.3681949700363388    0.8623742880564891    0.3644948157016933 Se
   0.3914552715672298    0.6146495304848122    0.6175046830783586 Se
   0.6126745218754593    0.8837724323069021    0.1232065526887548 Se
   0.6131466082378363    0.6193897340253524    0.3828309884489051 Se
   0.3835148067685546    0.8816213494854698    0.8885251288750048 Se
   0.3675775717272877    0.6338729319988865    0.1317680218597680 Se
   0.1303078126106185    0.3675534447282896    0.6375595667401545 Se
   0.1332385643669201    0.6267188537514690    0.3658588325897429 Se
   0.3645023766223705    0.3644603236394158    0.8707655726345878 Se
   0.8826302585261272    0.1183803528127809    0.6193187115908902 Se
   0.1119994229804786    0.3818966275297791    0.1173555826202184 Se
   0.1197042931216697    0.1165347985289187    0.3802965842221989 Se
   0.8767388596722756    0.3816047619785060    0.8819622357179667 Se
   0.8691329221594309    0.1303521827176637    0.1312765895489105 Se
   0.6285143456742812    0.8716867693774883    0.6249378181959605 Se
   0.6304605584385125    0.1322821143561971    0.3693591008927527 Se
   0.8672752819948416    0.8674181646634540    0.8669412888985734 Se
   0.8852296896233650    0.6174199867193397    0.1174656526624384 Se
   0.1250245084651878    0.8879347795039548    0.6185438454358406 Se
   0.1227342063158878    0.6105973678235931    0.8831401848746799 Se
   0.8838188231668705    0.8828003167515016    0.3828345385844067 Se
   0.8671329111369307    0.6328661170234624    0.6328679856283662 Se
   0.6315462193325773    0.3640442989104617    0.1399794393035085 Se
   0.6330612983248519    0.6276397697679993    0.8666460036810488 Se
   0.8633571374550814    0.3675946559881343    0.3685560034381413 Se
