Mg7 Sc16 Se32
1.0
  11.1003847944368736    0.0000000000000000    0.0000000000000000
   0.0000000000000000   11.1003847944368736    0.0000000000000000
  -0.0000000000000000   -0.0000000000000000   11.1003847944368736
Mg Sc Se
7 16 32
direct
   0.1706525272066693    0.3107861594031245    0.2124174692894930 Mg
   0.2562581091950053    0.7429380999692651    0.7460266033140914 Mg
   0.4996808463976372    0.5082332479607717    0.0138404406313855 Mg
   0.7518592652549064    0.2448672475619726    0.7621287092899881 Mg
   0.0161230554758937    0.9891170479999851    0.9945002910823684 Mg
   0.7485330916491981    0.7507957524164797    0.2457375745007952 Mg
   0.9979336428686264    0.4960837063180357    0.4966482523069852 Mg
   0.1416706019732995    0.8637339570819880    0.3768043281302395 Sc
   0.3708844733078649    0.1035587012107630    0.8798510509798174 Sc
   0.3689336368886898    0.3762065562139720    0.6261367438043365 Sc
   0.1443653907401905    0.1135167786596052    0.6267332779712007 Sc
   0.1106442531563487    0.3832565667339253    0.8693421900311120 Sc
   0.3761970118424615    0.6324384232004288    0.3764842927633238 Sc
   0.3712468162693935    0.8702671232924870    0.1238930912941816 Sc
   0.1360642023340413    0.6214215937554429    0.1111488755833352 Sc
   0.6271034447437185    0.8647051618918231    0.8701360309185523 Sc
   0.8855015923597261    0.1273674956938201    0.3827546669583991 Sc
   0.8639566618199235    0.3665340105714817    0.1282383837674473 Sc
   0.6028564633197214    0.1157143631602409    0.1292350675853089 Sc
   0.6241518386519519    0.3757605157138682    0.3749307958023332 Sc
   0.8919934479318324    0.6224314495306476    0.8804994244190211 Sc
   0.8703082814911784    0.8625455651141052    0.6203198260005207 Sc
   0.6266613877104167    0.6194125791641578    0.6200705511023534 Sc
   0.3944257731949581    0.1018894015235051    0.1109313125149466 Se
   0.6159668571137261    0.3789031066680940    0.6156575021953330 Se
   0.6055927568426928    0.1071745549961364    0.8859013678375752 Se
   0.3972133181471548    0.3827322592010741    0.3748001769302972 Se
   0.3637666344228845    0.1283986840345386    0.6369360532914077 Se
   0.1366905019511300    0.8699451583650948    0.1330135244477738 Se
   0.1347819966188971    0.1070133458745309    0.8670215474751778 Se
   0.3796745179210685    0.8518738148318916    0.3659220187268900 Se
   0.3865187788425238    0.6149861546382106    0.6141481992936041 Se
   0.6330040488871539    0.8726245773238946    0.1094264471181708 Se
   0.6210216154984520    0.6267178353869528    0.3807598588031586 Se
   0.3898063761677296    0.8717602921547577    0.8798329463695433 Se
   0.3788053035101335    0.6492391950100740    0.1198798267928721 Se
   0.1272035331503606    0.3930259542531230    0.6288054402964542 Se
   0.1268828517967346    0.6440317916095873    0.3794879483505886 Se
   0.3629145550141862    0.3605688505663013    0.8789961144719209 Se
   0.8862980571711689    0.1220083035933340    0.6138463839168323 Se
   0.1099034313255245    0.3796434406259642    0.1157221223795095 Se
   0.1169014893753897    0.1176506759298957    0.3830156978036410 Se
   0.8879632351272766    0.3628807730875767    0.8910985087300192 Se
   0.8776603678956623    0.1382908023173386    0.1545841242910106 Se
   0.6305428610298625    0.8551373675972876    0.6100498066034828 Se
   0.6360846498957329    0.1317455529942601    0.3529553300746945 Se
   0.8679961280835412    0.8683246915376613    0.8652434547849572 Se
   0.8887148086581571    0.6061075114740927    0.1196128562046863 Se
   0.0996654776164621    0.8635687209996813    0.6218889403059287 Se
   0.1163071722393638    0.6191452986487043    0.8842730181015072 Se
   0.8610916634180041    0.8824141562983643    0.3708637444836657 Se
   0.8672492801524821    0.6333893077751628    0.6306882852517106 Se
   0.6175304954663039    0.3632623803032038    0.1535565315453163 Se
   0.6500127754198588    0.6463659203728372    0.8674020216464143 Se
   0.8606805811843086    0.3700291603549581    0.3648363162625026 Se
