Mg7 Sc16 Se32
1.0
  11.1003847944368736    0.0000000000000000    0.0000000000000000
   0.0000000000000000   11.1003847944368736    0.0000000000000000
  -0.0000000000000000   -0.0000000000000000   11.1003847944368736
Mg Sc Se
7 16 32
direct
   0.4970406846844537    0.0025320394537658    0.4971598672934195 Mg
   0.2480342745564288    0.7514184410477948    0.7503126675996505 Mg
   0.4982736386784134    0.5025515090348907    0.0010216352823077 Mg
   0.7507023336914589    0.2513255655259198    0.7439645874437373 Mg
   0.9960374077679168    0.0005003471661139    0.9980536966566230 Mg
   0.7498790394072922    0.7508946593688417    0.2514626432784781 Mg
   0.2558149490850932    0.2504475671854798    0.2542472869035050 Mg
   0.1319527411753479    0.8746077929381194    0.3747874988321393 Sc
   0.3737248675993009    0.1222836348482958    0.8763394963521347 Sc
   0.3755676716915963    0.3754397717098249    0.6243401864609636 Sc
   0.1226876893069315    0.1199303308742715    0.6300016664750651 Sc
   0.1275697627930466    0.3738910340829114    0.8726751928310299 Sc
   0.3742637234641066    0.6246118632721016    0.3736122732960616 Sc
   0.3737183994480170    0.8738657114918967    0.1243657820747245 Sc
   0.1250195851814687    0.6249547539612513    0.1250262059604302 Sc
   0.6250938626063884    0.8752050758067677    0.8747402239699574 Sc
   0.8755873899977056    0.1274218593022033    0.3790347826502412 Sc
   0.8782517935967104    0.3728860500097170    0.1268797260705202 Sc
   0.6235953993470094    0.1235218846082368    0.1236589919109017 Sc
   0.6297967039318159    0.3760012762603867    0.3734072621585802 Sc
   0.8745643147107864    0.6213213412469866    0.8791273443771714 Sc
   0.8722557533209477    0.8767246037411487    0.6289736983307276 Sc
   0.6212561528174639    0.6246804344116318    0.6212283308370313 Sc
   0.3772507619179974    0.1120229465431971    0.1172717145642701 Se
   0.6220492342646745    0.3836571330206607    0.6165751843430310 Se
   0.6127313326860616    0.1178785190054118    0.8820639322054131 Se
   0.3828362083487752    0.3836270548507992    0.3830169089101488 Se
   0.3620256224419127    0.1361268471946975    0.6288560099949204 Se
   0.1323632949050166    0.8667860707651409    0.1352353669441425 Se
   0.1316493614351084    0.1324501437742227    0.8672248562842014 Se
   0.3678075561303830    0.8680295304618570    0.3666810377424668 Se
   0.3826729098349523    0.6188534842824807    0.6193319526070876 Se
   0.6175451043114186    0.8823396986636993    0.1181183568240347 Se
   0.6149955478595100    0.6160757887172884    0.3837669969862008 Se
   0.3820514334959176    0.8832622098663521    0.8899056183344021 Se
   0.3695205289259282    0.6273999820268281    0.1349198484460274 Se
   0.1292963807899706    0.3668624562763649    0.6311380880133490 Se
   0.1322665929859776    0.6317872447179974    0.3656744699760280 Se
   0.3662775045566123    0.3637519272549544    0.8663249615680616 Se
   0.8774560502055571    0.1144352980878826    0.6205002610542565 Se
   0.1165772036354435    0.3831885360350059    0.1180676849559557 Se
   0.1168185047350490    0.1156081749345886    0.3800522735516730 Se
   0.8828131437190487    0.3827604880112979    0.8828270337905543 Se
   0.8662729942234563    0.1319465934525008    0.1354792255066400 Se
   0.6352331812432639    0.8644470047210181    0.6346963206568645 Se
   0.6313079350174426    0.1318330841704749    0.3672210793145974 Se
   0.8644330572797937    0.8646499581842713    0.8680351870909764 Se
   0.8881210176123525    0.6167017053849263    0.1154683270005235 Se
   0.1140451881298280    0.8814644465780725    0.6132768691101701 Se
   0.1144527613893007    0.6104978760080068    0.8802036326543916 Se
   0.8797148608528738    0.8840803108488668    0.3881978386779892 Se
   0.8644200961362014    0.6325059567302708    0.6281902746878015 Se
   0.6299306240828045    0.3685062879685664    0.1300659728192994 Se
   0.6341308029804451    0.6309236082095642    0.8677597715822242 Se
   0.8710639376452892    0.3646976599543840    0.3637996515220447 Se
