Mg7 Sc16 Se32
1.0
  11.1003847944368736    0.0000000000000000    0.0000000000000000
   0.0000000000000000   11.1003847944368736    0.0000000000000000
  -0.0000000000000000   -0.0000000000000000   11.1003847944368736
Mg Sc Se
7 16 32
direct
   0.5033221747341938    0.0013449438311879    0.4995997727137567 Mg
   0.2429167946639620    0.7537869810534811    0.7438202036886055 Mg
   0.4955502204964030    0.4958831457873179    0.9993001333559254 Mg
   0.7553217330667077    0.2435348452343402    0.7529846874428041 Mg
   0.0009621376313576    0.9962883190845088    0.9942748958174676 Mg
   0.7501194074801864    0.7547728013132827    0.2557200296032032 Mg
   0.9979547717603805    0.4922014954402865    0.5066385024582085 Mg
   0.1208871798854729    0.8796418314695902    0.3704771813961423 Sc
   0.3731621001323826    0.1331458793570071    0.8828950575597866 Sc
   0.3714355657920542    0.3718216401604161    0.6296774096488625 Sc
   0.1230107198496482    0.1244813076406327    0.6295784234496189 Sc
   0.1261130417905230    0.3736860363968893    0.8751630927151067 Sc
   0.3652078035514652    0.6191458563420354    0.3818897950242407 Sc
   0.3605431389675852    0.8832276115175914    0.1241220993067199 Sc
   0.1349946884707012    0.6211435508310561    0.1313481420968887 Sc
   0.6209493054178393    0.8685753594262616    0.8686896200006209 Sc
   0.8756162510805930    0.1273982441312162    0.3710989111243591 Sc
   0.8639072581422103    0.3744843330140091    0.1100325714861593 Sc
   0.6323467046515310    0.1324149405726510    0.1360036149809257 Sc
   0.6267679554894016    0.3758513742652363    0.3832860330164610 Sc
   0.8743510769555137    0.6394478492348558    0.8747906064714436 Sc
   0.8723641535036190    0.8856067371760601    0.6273858259087175 Sc
   0.6174347846839886    0.6204860705298995    0.6387770045210243 Sc
   0.3798730198918304    0.1132295806634675    0.1184630600525956 Se
   0.6183567355414108    0.3828722611719114    0.6182180082831170 Se
   0.6159239103005519    0.1137793272861010    0.8808681541573175 Se
   0.3719919500028715    0.3758762244096373    0.3798834489313868 Se
   0.3667500731119688    0.1339923771629652    0.6344038057719116 Se
   0.1258426027566446    0.8540014792896444    0.1186944127118487 Se
   0.1343022207061671    0.1322344749529249    0.8679635408499922 Se
   0.3639417661043490    0.8708323157573963    0.3721533427122243 Se
   0.3826881277055770    0.6167408701215725    0.6163689532049953 Se
   0.6138909332045941    0.8818613510425006    0.1136311860057281 Se
   0.6171586034942494    0.6168809709724065    0.3836100482109516 Se
   0.3787607364308898    0.8789356389043035    0.8649547674375303 Se
   0.3566991490519295    0.6375148198275733    0.1330499239993751 Se
   0.1345756071426570    0.3674616756914934    0.6298895057044730 Se
   0.1338446389885151    0.6228016704903796    0.3697026336165623 Se
   0.3568108306990355    0.3788697715285465    0.8644331441631259 Se
   0.8853765829072980    0.1084888801942836    0.6155201353536149 Se
   0.1184771235953147    0.3781608023908164    0.1159329540180828 Se
   0.1168463791907127    0.1150466958639021    0.3848314893228401 Se
   0.8802439836650369    0.3740032406281692    0.8924540882958936 Se
   0.8700047017231256    0.1288820067677530    0.1444510414109004 Se
   0.6417598733462238    0.8745001692525528    0.6282677338753344 Se
   0.6418682337776562    0.1198632187350354    0.3700590706891272 Se
   0.8490185828712247    0.8656305050850847    0.8708901636918341 Se
   0.8702391225507843    0.6319189451061874    0.1106252409602688 Se
   0.1153138300915385    0.8844780941227576    0.6157634164554825 Se
   0.1141070721409741    0.6204247393091380    0.8867727800233487 Se
   0.8827235570145534    0.8789740781699679    0.3844947199287337 Se
   0.8797471745658256    0.6250028354378094    0.6355224498049310 Se
   0.6337099705104855    0.3653348294571740    0.1368277459379723 Se
   0.6251775735155825    0.6344101830695792    0.8715040579178913 Se
   0.8700397416459141    0.3719329866494952    0.3683589353568466 Se
