Mg7 Sc16 Se32
1.0
  11.1003847944368736    0.0000000000000000    0.0000000000000000
   0.0000000000000000   11.1003847944368736    0.0000000000000000
  -0.0000000000000000   -0.0000000000000000   11.1003847944368736
Mg Sc Se
7 16 32
direct
   0.5054514813844937    0.9950255282575931    0.5042009019093754 Mg
   0.2531664436727682    0.7480820801987206    0.7529066710855323 Mg
   0.5000207980915443    0.4921024316709483    0.9983463741274667 Mg
   0.7517523763525690    0.2505394929411026    0.7527754151732982 Mg
   0.0026458015946903    0.0043926713579106    0.0004481834753466 Mg
   0.7399867751017239    0.7600442438441777    0.2442430135579640 Mg
   0.0834929256836865    0.4470807239687180    0.4337289908487769 Mg
   0.1123914517808148    0.8805885606963668    0.3681245654520368 Sc
   0.3838412249127310    0.1149965367949022    0.8760716244632003 Sc
   0.3721146872703462    0.3750378717434915    0.6242329827115317 Sc
   0.1134536163661005    0.1372498767199773    0.6232657548526555 Sc
   0.1298856158653305    0.3668795355312725    0.8813276690901635 Sc
   0.3840082113219435    0.6293138166736334    0.3801305473729094 Sc
   0.3735370314325853    0.8746071801042286    0.1244208927520358 Sc
   0.1273793820213086    0.6260639083080229    0.1232446599575924 Sc
   0.6286078531597101    0.8725555635363117    0.8725447111319565 Sc
   0.8679347413542985    0.1326965095986860    0.3756294503672551 Sc
   0.8863957585956477    0.3775967041109327    0.1338937809463470 Sc
   0.6310707250874209    0.1203607550374777    0.1273396995372103 Sc
   0.6245904447896422    0.3762427039997688    0.3751215111562144 Sc
   0.8688616421912657    0.6333119990087971    0.8767160145256019 Sc
   0.8664251189764988    0.8690118880650528    0.6242917941777814 Sc
   0.6285310110266971    0.6235331668216108    0.6232964362620264 Sc
   0.3787627682199028    0.1240495330719245    0.1315689657308366 Se
   0.6171873897519956    0.3824624873348394    0.6176016496874619 Se
   0.6187617158722227    0.1182099153872158    0.8790319795758327 Se
   0.3838911428350527    0.3862798792040149    0.3848407887426862 Se
   0.3682162364510778    0.1322714864356532    0.6339213057970384 Se
   0.1350409440226143    0.8590299758930757    0.1356465001161176 Se
   0.1294527098868088    0.1466829252964393    0.8766761946047827 Se
   0.3609064852981086    0.8582958870045456    0.3690336188627496 Se
   0.3863417349630328    0.6197128117427073    0.6189481297743669 Se
   0.6160038290070757    0.8837275664829134    0.1175679851414135 Se
   0.6146118738241180    0.6225261317681252    0.3784683451982882 Se
   0.3847213155163212    0.8803237665681692    0.8828263035861917 Se
   0.3749276002406271    0.6252865415409133    0.1345940497671660 Se
   0.1363699937980462    0.3685735612342095    0.6355395456576854 Se
   0.1323742832919891    0.6285550205267140    0.3617253445754226 Se
   0.3706200494584635    0.3582477790566954    0.8526528368923889 Se
   0.8803687763225730    0.1247719304423056    0.6256463133253974 Se
   0.1177402425272043    0.3965138390585169    0.1268114787848341 Se
   0.1124587412757850    0.1137958073743488    0.3864294539426787 Se
   0.8799187636681457    0.3810695390338512    0.8862101558498965 Se
   0.8637623146011236    0.1302421527025021    0.1341405184514012 Se
   0.6302870474240971    0.8771168479233711    0.6408022390052778 Se
   0.6255517360531750    0.1325762207099437    0.3588430874492127 Se
   0.8706364451851474    0.8602443804271452    0.8740972441080056 Se
   0.8789283762471839    0.6150679685441429    0.1144835704230900 Se
   0.1165374428462151    0.8801261629142524    0.6156658627792998 Se
   0.1167186110124283    0.6169801927915768    0.8829207074183502 Se
   0.8854756989877842    0.8685847745492428    0.3793379970145034 Se
   0.8623919050224944    0.6290979468050240    0.6354505651517448 Se
   0.6280164679861238    0.3712056745529850    0.1332061148353116 Se
   0.6327436699217627    0.6325380866637723    0.8671110526811231 Se
   0.8579358317791695    0.3698483974521464    0.3593987018120670 Se
