Mg7 Sc16 Se32
1.0
  11.1003847944368736    0.0000000000000000    0.0000000000000000
   0.0000000000000000   11.1003847944368736    0.0000000000000000
  -0.0000000000000000   -0.0000000000000000   11.1003847944368736
Mg Sc Se
7 16 32
direct
   0.2066551443322050    0.2489905773018838    0.2481157897407140 Mg
   0.2499982033475873    0.7500488598452619    0.7499577296590915 Mg
   0.4967332035524155    0.4998937983810667    0.9991853981461418 Mg
   0.7500704159297912    0.2502289548829615    0.7500326141796112 Mg
   0.0034846734493286    0.0042612108172430    0.0041627920742462 Mg
   0.7498346208226123    0.7502811580630514    0.2498524366947130 Mg
   0.0023661080058274    0.5047954319735914    0.5005671124189837 Mg
   0.1294435926334154    0.8774058262038046    0.3713708011269354 Sc
   0.3702685126097956    0.1265793714932207    0.8726779068408401 Sc
   0.3774526553393174    0.3722077369200753    0.6271449413148616 Sc
   0.1232153449252363    0.1254869725654980    0.6259436418892558 Sc
   0.1217986742472596    0.3730888883211808    0.8787694518521069 Sc
   0.3740335799117946    0.6244529596843835    0.3736089180528157 Sc
   0.3767370933465170    0.8755555965762857    0.1224265421248544 Sc
   0.1194043197087803    0.6275216148288876    0.1257315814180444 Sc
   0.6249117616184362    0.8753800359771540    0.8767518299769429 Sc
   0.8816979798774762    0.1178819616908959    0.3740376966869525 Sc
   0.8732491353089358    0.3771287569814663    0.1273907803826579 Sc
   0.6260948126497258    0.1260547932550218    0.1239475816985078 Sc
   0.6244704976082922    0.3747804334841354    0.3757991603518860 Sc
   0.8737982979696918    0.6252102196955500    0.8760913029507444 Sc
   0.8748326399783243    0.8781412667060813    0.6278992980129373 Sc
   0.6251153076724815    0.6279776647948079    0.6172715650690558 Sc
   0.3842601130758010    0.1167650659783883    0.1167412679883764 Se
   0.6180042637206791    0.3832442736490464    0.6167100208618290 Se
   0.6200532814650174    0.1214340110068845    0.8874748441989808 Se
   0.3825980521714388    0.3817375309327942    0.3816071931501157 Se
   0.3669306173479001    0.1328632094675035    0.6321885093026739 Se
   0.1290771205172530    0.8688722730672154    0.1324763116943833 Se
   0.1328005474726408    0.1324919281977839    0.8675580629759977 Se
   0.3652080677275845    0.8668298985118400    0.3640401568900991 Se
   0.3854143230395283    0.6263173177070404    0.6218264778820958 Se
   0.6168766752539607    0.8819486678660619    0.1165663206684435 Se
   0.6210386563300936    0.6162515619326645    0.3845733697228266 Se
   0.3824228233692299    0.8830261150272370    0.8847150984570022 Se
   0.3665630679261834    0.6334241738318006    0.1320510503479383 Se
   0.1345138777943724    0.3678362728806485    0.6238737812238465 Se
   0.1381461348646293    0.6350278939801213    0.3664960552103783 Se
   0.3630566925804332    0.3744781933943180    0.8616687288540265 Se
   0.8812220825622991    0.1253739451761800    0.6105861995740977 Se
   0.1183693754368090    0.3787246138337433    0.1138393892043726 Se
   0.1196401681564697    0.1181951454350002    0.3816894550299982 Se
   0.8819461877830002    0.3800900737209389    0.8830229033132854 Se
   0.8666354723629004    0.1327881247688063    0.1325745642895770 Se
   0.6312566371858028    0.8761374659720768    0.6328911333219227 Se
   0.6330906285481380    0.1306055074334183    0.3635970924025400 Se
   0.8673894412388125    0.8631676806485559    0.8688625345161723 Se
   0.8860187813299464    0.6154958650296352    0.1138793374763925 Se
   0.1223795977671002    0.8864694738030312    0.6238364601997873 Se
   0.1158027803333247    0.6138161566762120    0.8797796809018309 Se
   0.8737272089154006    0.8820866084165714    0.3777747273337611 Se
   0.8630635300992604    0.6310752126089556    0.6318318015330561 Se
   0.6357769688143551    0.3717556528174956    0.1409435453290520 Se
   0.6327876115742702    0.6330545218951681    0.8674401189187324 Se
   0.8679600343228538    0.3692316599264087    0.3701116617360223 Se
