Mg7 Sc16 Se32
1.0
  11.1003847944368736    0.0000000000000000    0.0000000000000000
   0.0000000000000000   11.1003847944368736    0.0000000000000000
  -0.0000000000000000   -0.0000000000000000   11.1003847944368736
Mg Sc Se
7 16 32
direct
   0.3550050239024197    0.1061372536537191    0.3850458168825380 Mg
   0.2481920813234111    0.7591581638292118    0.7566505755693811 Mg
   0.5050318232013113    0.4904426099197465    0.0069316529299493 Mg
   0.7598566405974918    0.2473583836638441    0.7536162297634588 Mg
   0.9998858735136179    0.0003544253099333    0.9987885694572398 Mg
   0.7511887330545545    0.7503077527436283    0.2462094257731445 Mg
   0.0016266662577440    0.4798091775313866    0.4975682168799094 Mg
   0.1236821473282240    0.8645631202305311    0.3785397104362521 Sc
   0.3702111177716303    0.1096632862569099    0.8663653449080333 Sc
   0.3777504126318684    0.3693229575837023    0.6281775732948897 Sc
   0.1247520717727227    0.1206368050775050    0.6351328834759599 Sc
   0.1247521560330367    0.3764561728979252    0.8772481901627626 Sc
   0.3894821907272468    0.6245551225030804    0.3760093244703421 Sc
   0.3797378937419591    0.8795670902847460    0.1266527836716871 Sc
   0.1313590165517714    0.6292324800434590    0.1373150493085975 Sc
   0.6155072778117429    0.8663555806893193    0.8693779931147932 Sc
   0.8673220963731236    0.1320420871421410    0.3630167204756639 Sc
   0.8756442253764100    0.3716908048151180    0.1274777411369730 Sc
   0.6249475914870803    0.1250055491427157    0.1250662790950793 Sc
   0.6325034240035858    0.3618874217279934    0.3710999591610302 Sc
   0.8713192689513527    0.6325253464373636    0.8692852780994583 Sc
   0.8698207161047699    0.8809239512050916    0.6274115443742041 Sc
   0.6235407663667493    0.6272435851969039    0.6215690616688480 Sc
   0.3821428580777807    0.1166582367408142    0.1174441058805692 Se
   0.6177240804336060    0.3768585946803863    0.6162158693844565 Se
   0.6183085456013617    0.1176702870523005    0.8829661077545019 Se
   0.3854782848660300    0.3856489644816644    0.3824942085502827 Se
   0.3627996110878132    0.1230299330937412    0.6203710943356538 Se
   0.1351839049499699    0.8708016653987356    0.1342579404056400 Se
   0.1334303154767522    0.1326578622812598    0.8672736570981758 Se
   0.3774801009327131    0.8786605249599492    0.3720905165280317 Se
   0.3914484579697664    0.6217705965118033    0.6180078646213397 Se
   0.6012143691365649    0.8795568437157945    0.1157864372446976 Se
   0.6050712248470023    0.6217887383787382    0.3875443733038735 Se
   0.3825764459705153    0.8833569920111078    0.8848386292954392 Se
   0.3686837788476405    0.6360495758523923    0.1317084940636652 Se
   0.1416699268134159    0.3623265605761605    0.6345702230420337 Se
   0.1320550358403800    0.6339641789703926    0.3680615683392988 Se
   0.3713942855575491    0.3653346882645411    0.8646493663325093 Se
   0.8834819569202430    0.1275731507923729    0.6217505365331599 Se
   0.1174044516658325    0.3841406857024545    0.1207541095070658 Se
   0.1214218073039125    0.1182496316941448    0.3911259780012112 Se
   0.8827724935450025    0.3822055809310699    0.8824648313054754 Se
   0.8776160600012086    0.1195645128922011    0.1273804127548407 Se
   0.6465042088106523    0.8556153895087156    0.6311758106379877 Se
   0.6359990083848701    0.1327102657097488    0.3737959674663434 Se
   0.8654924842091705    0.8681284593142963    0.8655367146664700 Se
   0.8813614455005725    0.6187008219630138    0.1124056811684210 Se
   0.1166590544043070    0.8807760929927223    0.6154908283905413 Se
   0.1084577001250320    0.6155967783372571    0.8806923157711991 Se
   0.8737467533032995    0.8741797951182126    0.3818422816909764 Se
   0.8585155632547110    0.6456999719682731    0.6277707865195511 Se
   0.6319571228668160    0.3699161145599039    0.1309588973242206 Se
   0.6311561634686984    0.6324525814775066    0.8643601136900367 Se
   0.8626442066234141    0.3606552211207516    0.3735119914743540 Se
