Mg7 Sc16 Se32
1.0
  11.1003847944368736    0.0000000000000000    0.0000000000000000
   0.0000000000000000   11.1003847944368736    0.0000000000000000
  -0.0000000000000000   -0.0000000000000000   11.1003847944368736
Mg Sc Se
7 16 32
direct
   0.4939120786221357    0.9900574751095137    0.5026088127401552 Mg
   0.2499806778574337    0.7500419432986549    0.7499886609351036 Mg
   0.4964456710529281    0.5007775291643336    0.0045717885699816 Mg
   0.7431148243566426    0.2501595396854002    0.7555276727624778 Mg
   0.0002152516907881    0.0001482817148901    0.0009440029615782 Mg
   0.7509756819505706    0.7501521419050744    0.2501571111846624 Mg
   0.0448346306172423    0.4164835165623169    0.3787540918618834 Mg
   0.1247986166571404    0.8749893445679017    0.3749473091318530 Sc
   0.3611437320388833    0.1123170728381312    0.8667980536124376 Sc
   0.3713851793620851    0.3691832005004591    0.6224938714756488 Sc
   0.1407143867093026    0.1319953960515452    0.6330965883767835 Sc
   0.1309344661581900    0.3650598148080430    0.8766478595816037 Sc
   0.3745572340591745    0.6189373238421776    0.3773224907939950 Sc
   0.3743555762342338    0.8742587662903671    0.1239258726493172 Sc
   0.1199321514112255    0.6300858531459187    0.1372080336046835 Sc
   0.6082432150036889    0.8650052081531326    0.8759036970693387 Sc
   0.8807038058249307    0.1270571182903565    0.3721293538095954 Sc
   0.8638005707382108    0.3758813669876402    0.1354568933059739 Sc
   0.6257870773338423    0.1242436268355306    0.1259619445387939 Sc
   0.6203935215592643    0.3664502415188181    0.3783640804690112 Sc
   0.8873436980143681    0.6289905464390989    0.8666485650986178 Sc
   0.8654455682028470    0.8758776509561040    0.6374519667645853 Sc
   0.6270723599751270    0.6264830182950250    0.6242912865488387 Sc
   0.3749737285315101    0.1131546968240083    0.1192933964757901 Se
   0.6178004868137550    0.3827449731021640    0.6177113160926747 Se
   0.6213703746744573    0.1228333484057569    0.8805047111782442 Se
   0.3860352359817707    0.3908963684093996    0.3863696775238963 Se
   0.3714177606277506    0.1447305240273711    0.6410761256585046 Se
   0.1434326469804443    0.8654440001624446    0.1271607441528222 Se
   0.1330930158868051    0.1328124860496363    0.8681284889403181 Se
   0.3677429455010299    0.8724906050941380    0.3600567480024355 Se
   0.3936966140169488    0.6272710453325012    0.6203767909347278 Se
   0.6151886513455304    0.8682816204880145    0.1250774252293889 Se
   0.6130605156845195    0.6169557260189515    0.3863243207912374 Se
   0.3723531857426517    0.8880880013285413    0.8884097543201595 Se
   0.3828329309745996    0.6419961905593911    0.1331430449468765 Se
   0.1338007826564178    0.3658870442285135    0.6348854409286191 Se
   0.1323606683221555    0.6336548231705205    0.3673283589085926 Se
   0.3597710901402473    0.3682231005966991    0.8585748226830030 Se
   0.8720537148088943    0.1035046925733873    0.6070964792842821 Se
   0.1170969240467904    0.3835514409026127    0.1168798496706137 Se
   0.1289960745594591    0.1204869530793447    0.3960757734849065 Se
   0.8897241355389826    0.3769344364520298    0.8825303440844908 Se
   0.8654272987446665    0.1405768928757295    0.1331461582981074 Se
   0.6340834302451658    0.8629684150745530    0.6342542308921688 Se
   0.6342260315298641    0.1344008115801491    0.3783230367631282 Se
   0.8611419542042854    0.8738682952637902    0.8725936210045747 Se
   0.8974075826589140    0.6078027563361773    0.1133105706245240 Se
   0.1248532019268453    0.8694262951063900    0.6107790326529403 Se
   0.1272785051476188    0.6271601465306667    0.8856809100155278 Se
   0.8753655983479433    0.8917066841078682    0.3768421129661672 Se
   0.8642915638815301    0.6428838402852010    0.6335009044826976 Se
   0.6224550302687176    0.3757888228461673    0.1289938347322050 Se
   0.6269957092063211    0.6351896602825692    0.8852345459219449 Se
   0.8631189761094040    0.3723519248365535    0.3555327662567860 Se
