Mg7 Sc16 Se32
1.0
  11.1003847944368736    0.0000000000000000    0.0000000000000000
   0.0000000000000000   11.1003847944368736    0.0000000000000000
  -0.0000000000000000   -0.0000000000000000   11.1003847944368736
Mg Sc Se
7 16 32
direct
   0.4956916382485175    0.9934925922220917    0.4970694922151905 Mg
   0.2418940751042835    0.7549291459285091    0.7478521769686117 Mg
   0.5010745988930060    0.5004786628161253    0.9991257414827839 Mg
   0.7527039100224993    0.2479962860288059    0.7493702153150424 Mg
   0.1658676873415537    0.2288947924614186    0.2214023843513485 Mg
   0.7426883495521751    0.7403608781048706    0.2527035165363084 Mg
   0.9954958564555831    0.4979658700322069    0.5035263833013353 Mg
   0.1317530948047935    0.8636813788940848    0.3774562387885409 Sc
   0.3775924770665757    0.1379206442740823    0.8710986868661823 Sc
   0.3758248917819421    0.3754924929580585    0.6253244557858582 Sc
   0.1251028570243496    0.1253310006583704    0.6258706866990139 Sc
   0.1278546943396360    0.3718058734190032    0.8726621484542112 Sc
   0.3812232787707158    0.6202890729813024    0.3667882105047039 Sc
   0.3823949270068602    0.8701373975191014    0.1328167395136843 Sc
   0.1271739618536282    0.6352682396888722    0.1273671364259893 Sc
   0.6378872190401080    0.8804283001796053    0.8740071020675507 Sc
   0.8828410293427614    0.1230253260789997    0.3684105514082289 Sc
   0.8750619876910257    0.3786783021784475    0.1233173190671736 Sc
   0.6242766102829788    0.1300174605463774    0.1304258750122236 Sc
   0.6251131562723582    0.3732501222438055    0.3770932179528350 Sc
   0.8778374842970982    0.6331019796925348    0.8659780041807741 Sc
   0.8719384644986340    0.8798155275193446    0.6163923626982187 Sc
   0.6348985535707110    0.6218941773715257    0.6271770693158440 Sc
   0.3823446481078107    0.1184603584352694    0.1161037223888610 Se
   0.6174544727499754    0.3839111004895882    0.6163551732486129 Se
   0.6194647316921376    0.1071443081588280    0.8853403687766135 Se
   0.3823056275254053    0.3846709569865853    0.3756950616158157 Se
   0.3715347941921213    0.1402970617894149    0.6223702653074300 Se
   0.1322205169769526    0.8737515737156141    0.1444369790199207 Se
   0.1316429893567033    0.1364591348287337    0.8586950922574692 Se
   0.3742287325882593    0.8599019484323633    0.3706765825488524 Se
   0.3854750738693075    0.6120888330878573    0.6225110197965905 Se
   0.6141696649909349    0.8855823236714210    0.1179492482825005 Se
   0.6160579293941606    0.6135148204659695    0.3957411315933597 Se
   0.3806384268834744    0.8807682184641623    0.8835126468855492 Se
   0.3699526462882178    0.6341978335109821    0.1322835239625691 Se
   0.1370817156113871    0.3658487985665211    0.6339751124798214 Se
   0.1350905677366730    0.6318514524141748    0.3738839099134184 Se
   0.3754998212531855    0.3677695645841632    0.8671579089574182 Se
   0.8851633797768693    0.1128235329124154    0.6208495867118147 Se
   0.1238787697736000    0.3819408942750100    0.1158871519149624 Se
   0.1185058929902763    0.1188416458006020    0.3818782993838024 Se
   0.8943078484279144    0.3824234000520651    0.8896862674251097 Se
   0.8654557736566993    0.1364713539503938    0.1365917144940268 Se
   0.6441805516050007    0.8637330029274848    0.6315148075595801 Se
   0.6361802140173238    0.1451077582622355    0.3622448659068338 Se
   0.8672146260578734    0.8688353690173921    0.8691255476243619 Se
   0.8891859286800280    0.6147794028160162    0.1211614893052294 Se
   0.1169038081747088    0.8816938209281899    0.6170176790545722 Se
   0.1092063102006793    0.6155694610899179    0.8716730806977375 Se
   0.8789248527663830    0.8823337406313447    0.3830535888551708 Se
   0.8639123168985816    0.6249049041881196    0.6347947849329103 Se
   0.6442726690607564    0.3638272579506958    0.1326212534166329 Se
   0.6309560858537754    0.6324850300813486    0.8641454976385136 Se
   0.8617450633041834    0.3729776116660019    0.3669421865335007 Se
