Mg7 Sc16 Se32
1.0
  11.1003847944368736    0.0000000000000000    0.0000000000000000
   0.0000000000000000   11.1003847944368736    0.0000000000000000
  -0.0000000000000000   -0.0000000000000000   11.1003847944368736
Mg Sc Se
7 16 32
direct
   0.4954227178525483    0.9992938433822184    0.4999083478202797 Mg
   0.2517062662597259    0.7500484149904372    0.7548385777882886 Mg
   0.1873616047865004    0.2236750527893393    0.2581490787512559 Mg
   0.7492441976273392    0.2509299717094176    0.7486940191204071 Mg
   0.9917863745536509    0.0027820073673324    0.9956698936408617 Mg
   0.7536076881311483    0.7522471832303932    0.2508726150060687 Mg
   0.9921385796725937    0.5140608736258052    0.5006953072554983 Mg
   0.1210731327111852    0.8732883561787217    0.3624065615644959 Sc
   0.3760097614776349    0.1283625209006924    0.8620664049286464 Sc
   0.3607692092488869    0.3661992806324781    0.6237661420874658 Sc
   0.1196935222609909    0.1238158006437425    0.6219249350269802 Sc
   0.1235185200669734    0.3624094778269478    0.8818399493114775 Sc
   0.3792526428849265    0.6230773571880335    0.3758263780574537 Sc
   0.3781003361271112    0.8824665851416845    0.1098018792005053 Sc
   0.1202827115030111    0.6284721703889643    0.1262966407608833 Sc
   0.6291537705297890    0.8698472492200872    0.8797949543295437 Sc
   0.8780103305096066    0.1261443513952664    0.3855927045202947 Sc
   0.8752011668064636    0.3662909082408533    0.1344212741601767 Sc
   0.6295604041164024    0.1242057144611419    0.1252908502136648 Sc
   0.6304158936891429    0.3706837668240514    0.3860871001327948 Sc
   0.8884108308716193    0.6273836633424442    0.8840377486659056 Sc
   0.8754385063567934    0.8751029491322698    0.6118967239732351 Sc
   0.6135837403396673    0.6190781548958090    0.6354093905592849 Sc
   0.3917841986075474    0.1215564168188239    0.1271755768101445 Se
   0.6196061366700791    0.3845216987772072    0.6170250902002640 Se
   0.6174928381345709    0.1175536550330598    0.8911957864762654 Se
   0.3818758408176265    0.3829121520032995    0.3831655430216636 Se
   0.3772583441401541    0.1240544168542874    0.6258565712364239 Se
   0.1441944134325691    0.8749472543130701    0.1375594261391688 Se
   0.1340597341592463    0.1430786537022161    0.8705147097115179 Se
   0.3663151085978752    0.8669049804558862    0.3665905399133967 Se
   0.3678678297461306    0.6127132453426650    0.6246111291705201 Se
   0.6107487746539491    0.8749765601651085    0.1293924382997014 Se
   0.6111038211313999    0.6046537292461013    0.3897199567238588 Se
   0.3837725621471464    0.8848453165616904    0.8882264079351634 Se
   0.3640513781018026    0.6381915191213093    0.1286178526162063 Se
   0.1292570343509029    0.3762311243137710    0.6319342304562585 Se
   0.1406106164312400    0.6399799865987870    0.3751357905608508 Se
   0.3661870739896327    0.3695844689316167    0.8728697044832745 Se
   0.8889785720797851    0.1199844127200415    0.6192363491347564 Se
   0.1190653952482386    0.3903849897127439    0.1187588204315458 Se
   0.1162712411569729    0.1149202798366053    0.3800190534640632 Se
   0.8847755934734448    0.3856449195232635    0.8803493035813652 Se
   0.8656453311485619    0.1383565610168375    0.1363078120837686 Se
   0.6335359389669507    0.8676218468845232    0.6359336777086420 Se
   0.6328682777806538    0.1206884740971174    0.3610570226825200 Se
   0.8665523271510563    0.8643927806212028    0.8682465990678665 Se
   0.8886762052609752    0.6298211397424899    0.1167537430114766 Se
   0.1175867616156919    0.8848303995258947    0.6146525994783730 Se
   0.1224556779214388    0.6194114961616791    0.8889470175281176 Se
   0.8785115835041412    0.8795282427307817    0.3896882822400465 Se
   0.8709142213327576    0.6351213513110459    0.6318746336305561 Se
   0.6308844499969335    0.3634774310100197    0.1217422820872812 Se
   0.6336881406006508    0.6326566158644444    0.8675518632960888 Se
   0.8668592277974517    0.3692085374704521    0.3641568254979469 Se
