Mg7 Sc16 Se32
1.0
  11.1003847944368736    0.0000000000000000    0.0000000000000000
   0.0000000000000000   11.1003847944368736    0.0000000000000000
  -0.0000000000000000   -0.0000000000000000   11.1003847944368736
Mg Sc Se
7 16 32
direct
   0.4981182171367607    0.0006433997652302    0.5013424561846384 Mg
   0.2486410841042787    0.7530428763990810    0.7523298507538343 Mg
   0.3660554907526587    0.4149057638790511    0.0788585748882632 Mg
   0.7477389656676870    0.2468310862176544    0.7488779321909393 Mg
   0.0012497254336788    0.0001576997644416    0.0002266649089151 Mg
   0.7482759572427098    0.7503524252971832    0.2487310567985361 Mg
   0.9993491679021633    0.4992299726817838    0.4992382231334632 Mg
   0.1249207375274344    0.8734433414030317    0.3764808518638063 Sc
   0.3702038262419953    0.1338930206422700    0.8739533696759736 Sc
   0.3765707467074261    0.3792117439692408    0.6207932640433027 Sc
   0.1351365888885658    0.1241714007643935    0.6242570273622090 Sc
   0.1311157515165939    0.3651498004878487    0.8714880608205754 Sc
   0.3872848520300355    0.6263981969022284    0.3767273603837864 Sc
   0.3684564558156024    0.8837602846257210    0.1312175328307834 Sc
   0.1285097317665220    0.6275508121845569    0.1277038674550669 Sc
   0.6253596168742167    0.8740296199245985    0.8778543124530866 Sc
   0.8748893681572547    0.1264749579167228    0.3742176062681934 Sc
   0.8751608904437221    0.3703937793994512    0.1183764283007163 Sc
   0.6168554735280912    0.1177347528914590    0.1218419478827147 Sc
   0.6278943967595956    0.3774637180015785    0.3780220519846664 Sc
   0.8758243782274893    0.6203860394365207    0.8868259100072761 Sc
   0.8835130373888388    0.8694283716167397    0.6307052491916472 Sc
   0.6277196244170511    0.6226206519357338    0.6116585559364144 Sc
   0.3822987819056532    0.1156424471370281    0.1183017304949038 Se
   0.6278804740027142    0.3740969977834986    0.6151413802301492 Se
   0.6208074232391341    0.1204269239288226    0.8832968441404803 Se
   0.3886504697596279    0.3735395236227326    0.3858604885498135 Se
   0.3683839440743013    0.1355407472474685    0.6379835475370335 Se
   0.1366527448484284    0.8663511871809032    0.1265180348753044 Se
   0.1387153221055693    0.1338248529938476    0.8641918685009341 Se
   0.3695695524123373    0.8662553475066641    0.3742943187908798 Se
   0.3824836551136583    0.6160440998513396    0.6183672737177702 Se
   0.6171642626877105    0.8877070314069225    0.1177571450738246 Se
   0.6259056596223611    0.6147032374727437    0.3801780783871876 Se
   0.3887001691930584    0.8893784777780783    0.8909210329368636 Se
   0.3738725501521009    0.6324293512834951    0.1277842665126549 Se
   0.1274837444836110    0.3665545016633218    0.6380577686249965 Se
   0.1332110101430220    0.6325585239028199    0.3733312860771271 Se
   0.3657037985605110    0.3771164281709102    0.8645349434817902 Se
   0.8846365751422645    0.1139770443278123    0.6197762939187499 Se
   0.1167330960529012    0.3775829898671828    0.1157176767303596 Se
   0.1157025685818233    0.1162884113308908    0.3888729029306973 Se
   0.8835038954679743    0.3767521836128880    0.8805191314562657 Se
   0.8656919967189065    0.1342750211706026    0.1306094410176431 Se
   0.6257688042334387    0.8647039831281575    0.6410689437198639 Se
   0.6316268570710458    0.1440454374295975    0.3602691876644446 Se
   0.8619091546692788    0.8780710671149542    0.8671135292470098 Se
   0.8805770394356682    0.6154636610601523    0.1174389747279210 Se
   0.1117589449562982    0.8816160309434086    0.6237626315225573 Se
   0.1175830823132179    0.6175448918960593    0.8874734848043637 Se
   0.8730019648877937    0.8826469318010299    0.3900716554646232 Se
   0.8655212786088039    0.6344379045303911    0.6389782186468305 Se
   0.6410356935161957    0.3718775744592944    0.1379828190841555 Se
   0.6226524333791743    0.6298540901103418    0.8730564184535740 Se
   0.8667790019068137    0.3684412109950108    0.3685668748160119 Se
