Mg7 Sc16 Se32
1.0
  11.1003847944368736    0.0000000000000000    0.0000000000000000
   0.0000000000000000   11.1003847944368736    0.0000000000000000
  -0.0000000000000000   -0.0000000000000000   11.1003847944368736
Mg Sc Se
7 16 32
direct
   0.2843302535106536    0.2181228204116678    0.2909198947191272 Mg
   0.2501378794554077    0.7501283002267896    0.7492488067896536 Mg
   0.5001962365655368    0.4999344547322699    0.9999869826297172 Mg
   0.7489280925265824    0.2481946726371031    0.7523300363438977 Mg
   0.9976868071610865    0.9970380705565478    0.9996626299732579 Mg
   0.7497049853076838    0.7499622246372932    0.2502988066033360 Mg
   0.9987319812146253    0.4988207294679486    0.5004724152449378 Mg
   0.1251511407799845    0.8783049084446460    0.3748692059678504 Sc
   0.3775630232665289    0.1292302371798192    0.8747650925427691 Sc
   0.3749774449599036    0.3751533181483605    0.6247401848626798 Sc
   0.1252422394075830    0.1250527521296687    0.6228601433872141 Sc
   0.1288435197648628    0.3745008751786808    0.8732746154624635 Sc
   0.3765952642418195    0.6242116935138114    0.3737397019279267 Sc
   0.3739197937302818    0.8728265361286605    0.1252871099292208 Sc
   0.1227795916409768    0.6278269026171229    0.1216573592818844 Sc
   0.6252896232585102    0.8753027952047873    0.8731064005342769 Sc
   0.8773603963098846    0.1241913601746069    0.3743651807355803 Sc
   0.8749827148009893    0.3748464666653638    0.1252117888943346 Sc
   0.6267823044159091    0.1279168555858023    0.1205412582732173 Sc
   0.6261083852043938    0.3752031333561186    0.3787736641005482 Sc
   0.8699952336275351    0.6241844728979810    0.8735026397881061 Sc
   0.8791531565633763    0.8733166089964209    0.6208066100955985 Sc
   0.6249271744225408    0.6283498709972165    0.6264756179329460 Sc
   0.3831612538422229    0.1176777251890933    0.1181120812040195 Se
   0.6153951515827182    0.3816214271455753    0.6165213526552994 Se
   0.6168655865261612    0.1172369500046879    0.8833739338369229 Se
   0.3847042906380347    0.3876899925516989    0.3799497136261989 Se
   0.3656868346656023    0.1343911489385441    0.6373135349049609 Se
   0.1328357841866984    0.8669451761351898    0.1330461502419183 Se
   0.1342144016944604    0.1327987755540174    0.8625610385184135 Se
   0.3645735939436375    0.8673221679151966    0.3717890031586619 Se
   0.3801463644362761    0.6155127680989981    0.6110633966712221 Se
   0.6173093725383152    0.8829811158260618    0.1167240240770370 Se
   0.6159307472844411    0.6135846182021006    0.3891512989721269 Se
   0.3871635638048359    0.8845430514638412    0.8818696183845780 Se
   0.3704798546615540    0.6306462171996754    0.1392160289860666 Se
   0.1331394197833384    0.3700227610574173    0.6349017707977136 Se
   0.1352573054028050    0.6302546725988902    0.3725164594815037 Se
   0.3709062752571656    0.3627872180041171    0.8700319517644699 Se
   0.8823919649314883    0.1217772066259282    0.6182344921129578 Se
   0.1216022814022133    0.3809109296141789    0.1168388416578113 Se
   0.1125354822223742    0.1178128098590761    0.3830471586641774 Se
   0.8802868464700778    0.3783565901889017    0.8817905019521555 Se
   0.8686698875635818    0.1324491646692894    0.1349633388756870 Se
   0.6365486339129726    0.8708430026799188    0.6286475878935786 Se
   0.6344438931274520    0.1305022996603820    0.3732760767503766 Se
   0.8653786059652139    0.8630511408298421    0.8698861140872641 Se
   0.8828074157238769    0.6174004554043612    0.1170995349085147 Se
   0.1131715537291876    0.8789625204075227    0.6144268916246204 Se
   0.1166510441484487    0.6166686866431240    0.8839630475400111 Se
   0.8800998963585938    0.8849880942790622    0.3831207585434151 Se
   0.8670790176649633    0.6328788110267134    0.6329265256540301 Se
   0.6341773346111487    0.3675453533036735    0.1355440409322582 Se
   0.6276219988331359    0.6362629665938104    0.8659549655813236 Se
   0.8727155597401046    0.3623240950872737    0.3657045640690791 Se
