Mg7 Sc16 Se32
1.0
  11.1003847944368736    0.0000000000000000    0.0000000000000000
   0.0000000000000000   11.1003847944368736    0.0000000000000000
  -0.0000000000000000   -0.0000000000000000   11.1003847944368736
Mg Sc Se
7 16 32
direct
   0.4978761719383791    0.0035166629551718    0.4936501675143272 Mg
   0.2445152722207569    0.7478826953083342    0.7491292900816646 Mg
   0.3524104644137336    0.3364847883848214    0.1386973911696313 Mg
   0.7521110044576723    0.2511886054689548    0.7495958270393960 Mg
   0.0043419191927152    0.0060260320470849    0.9832482877578317 Mg
   0.7530307177930784    0.7482902534124259    0.2525905861348332 Mg
   0.0022305471125135    0.4975917211739322    0.4970366542505366 Mg
   0.1317688271919614    0.8803301569097540    0.3664557396880784 Sc
   0.3801600121711666    0.1235088721926593    0.8747363490161896 Sc
   0.3786954748479153    0.3782000995626481    0.6266448005559099 Sc
   0.1069640974904430    0.1179864324742252    0.6135720681550464 Sc
   0.1112823394663799    0.3573871165574910    0.8797992476781973 Sc
   0.3748285792161748    0.6260867059760432    0.3758908906414822 Sc
   0.3836694509208403    0.8734681974566065    0.1167478895563984 Sc
   0.1121256314528518    0.6186393187981994    0.1175701799198012 Sc
   0.6242544586302788    0.8764183923689212    0.8801728528264144 Sc
   0.8913398841657546    0.1355648271329863    0.3689970386616093 Sc
   0.8685873690878471    0.3784379046787632    0.1319267744412843 Sc
   0.6249038100646375    0.1157547515248814    0.1238264519820963 Sc
   0.6311301277391487    0.3856569813804521    0.3816716596615913 Sc
   0.8728044871019214    0.6142501695430160    0.8902108042321908 Sc
   0.8841510376005985    0.8799347029277462    0.6282333678531116 Sc
   0.6223955759707818    0.6476304752116747    0.6275051258397678 Sc
   0.3887781153127032    0.1366760642046849    0.1231110547562290 Se
   0.6108950720597399    0.3776299655252198    0.6053605294476464 Se
   0.6244127051254265    0.1022590016137759    0.8842034777173781 Se
   0.3828187502643965    0.3813563659233812    0.3831038465864995 Se
   0.3657815971984890    0.1525394351923094    0.6323453122364414 Se
   0.1246691435665957    0.8670796277574102    0.1435721729151461 Se
   0.1316751993608096    0.1344209336153786    0.8749565651766282 Se
   0.3615556490874262    0.8766055420427540    0.3607630929858446 Se
   0.3900367598965552    0.6237460617077900    0.6266596381706427 Se
   0.6142459829353001    0.8912453481810583    0.1227434691420171 Se
   0.6142225125015868    0.6187867796763694    0.3857854830295264 Se
   0.3742774937872484    0.8822821212676913    0.8848090686925144 Se
   0.3687432729780157    0.6288637517553320    0.1317006492788430 Se
   0.1325786261900025    0.3689205420633391    0.6293367755305413 Se
   0.1314604463217540    0.6335955520784936    0.3660320314894133 Se
   0.3565665238934788    0.3608075265484891    0.8726081702610103 Se
   0.8874349027450835    0.1213646080229097    0.6213600303468001 Se
   0.1170649775346079    0.3870738586367212    0.1182077187308167 Se
   0.1047435935757198    0.1069638911419887    0.3883209745823228 Se
   0.8815548108078533    0.3690024237610183    0.8760358952440278 Se
   0.8634504113833701    0.1367453676121668    0.1268317318621552 Se
   0.6291417571212056    0.8728814233541058    0.6334056165826035 Se
   0.6378183944028407    0.1212295667594244    0.3538527704779549 Se
   0.8774953743916236    0.8858180646681509    0.8657509029013768 Se
   0.8825304410287730    0.6192278040844004    0.1268533397963750 Se
   0.1251920642564692    0.8715980894822414    0.6190805668529771 Se
   0.1057533364558639    0.6328150082362041    0.8929872433857619 Se
   0.8829700855891347    0.8856264686785332    0.3819288249762658 Se
   0.8658144920800644    0.6265628411473816    0.6108159558160556 Se
   0.6341451741579693    0.3637895743865435    0.1243794999424899 Se
   0.6469295937080866    0.6388797420745016    0.8816432636553494 Se
   0.8584093674305140    0.3699537437508239    0.3597225080039724 Se
