Mg7 Sc16 Se32
1.0
  11.1003847944368736    0.0000000000000000    0.0000000000000000
   0.0000000000000000   11.1003847944368736    0.0000000000000000
  -0.0000000000000000   -0.0000000000000000   11.1003847944368736
Mg Sc Se
7 16 32
direct
   0.4998735872687762    0.0000515078888997    0.5003155853002478 Mg
   0.2487631371212944    0.7483150024991958    0.7504878606091933 Mg
   0.4997768298394771    0.4973180791512025    0.0012886183389520 Mg
   0.7511213507343434    0.2506226473626034    0.7488358537811550 Mg
   0.1376926640540269    0.2416158408179482    0.2058792472334545 Mg
   0.7502246037419485    0.7495544465622326    0.2505281951455025 Mg
   0.0010676468779916    0.4995170809315506    0.4961400762213288 Mg
   0.1281917603956499    0.8749739021560428    0.3748637880671396 Sc
   0.3745410559165930    0.1248592403059016    0.8750454536926775 Sc
   0.3745517387685824    0.3763590479662349    0.6259151962434414 Sc
   0.1240181637145923    0.1217039043756048    0.6228349910159902 Sc
   0.1213118954459898    0.3739181949719225    0.8748757560358124 Sc
   0.3764485532429118    0.6241024189846626    0.3788306559100355 Sc
   0.3748906303118546    0.8752095215007822    0.1251501802146218 Sc
   0.1259910803444676    0.6251257376835158    0.1254526520623400 Sc
   0.6270309537536382    0.8771984446340718    0.8740285828520106 Sc
   0.8740527820650420    0.1244301335609404    0.3762428728209967 Sc
   0.8756025340027154    0.3745976616935641    0.1230102994148116 Sc
   0.6238665167713027    0.1277551393436701    0.1223192874768371 Sc
   0.6241711955528689    0.3751143159764879    0.3760096283274335 Sc
   0.8738041101020911    0.6226651823801209    0.8721255309773771 Sc
   0.8772663327904652    0.8749853475703369    0.6241676997827370 Sc
   0.6228952111878007    0.6211860382548072    0.6259470166507080 Sc
   0.3829117401172298    0.1169100079022911    0.1176012016391097 Se
   0.6178273788968265    0.3837225487262168    0.6170294832250846 Se
   0.6174704455579562    0.1165253454989359    0.8827914222099079 Se
   0.3835427856245635    0.3812897984739727    0.3822036370837795 Se
   0.3670640498623550    0.1328477943424390    0.6309976135174935 Se
   0.1344865915141062    0.8640942861994926    0.1349666482466622 Se
   0.1325609290108586    0.1318340050487481    0.8703165515824753 Se
   0.3674546263004348    0.8678451086289553    0.3674713080794439 Se
   0.3849947247721069    0.6186497552982871    0.6203480440319453 Se
   0.6171269946734543    0.8827762101825494    0.1172794999322669 Se
   0.6172297765418807    0.6170443181427250    0.3829647783775662 Se
   0.3812565102705681    0.8857489031208098    0.8814088112554247 Se
   0.3665908883717411    0.6343164933045961    0.1336571663239996 Se
   0.1319093773419108    0.3678179993479295    0.6294459076079141 Se
   0.1333746109449172    0.6316878266380948    0.3667855202549861 Se
   0.3663485827737753    0.3681457681067611    0.8663281915102543 Se
   0.8834296716346849    0.1173742910836662    0.6165909317526267 Se
   0.1163767210679447    0.3837673407941174    0.1149575366796247 Se
   0.1150650719685050    0.1191368152521668    0.3834948318289936 Se
   0.8809151531720553    0.3817372343407618    0.8806641859567713 Se
   0.8673237387211250    0.1332359694032811    0.1333423439947612 Se
   0.6302713882534269    0.8675279069947468    0.6337351753627868 Se
   0.6316547228507736    0.1357915948778587    0.3667765957625668 Se
   0.8662146234628426    0.8652062331720877    0.8700308140214748 Se
   0.8864066153277841    0.6163033867034901    0.1162111014180649 Se
   0.1129405017974561    0.8841924138263814    0.6165779254011479 Se
   0.1189550086920329    0.6171982030841502    0.8849761195398185 Se
   0.8851242826578896    0.8820734490911181    0.3840494860806892 Se
   0.8663363431880545    0.6333493050552730    0.6332043612806826 Se
   0.6312057847866833    0.3669876901621169    0.1327233723262287 Se
   0.6329644681423504    0.6324509442329631    0.8673183751000607 Se
   0.8689210166354260    0.3698406977564485    0.3657255802378064 Se
