Mg7 Sc16 Se32
1.0
  11.1003847944368736    0.0000000000000000    0.0000000000000000
   0.0000000000000000   11.1003847944368736    0.0000000000000000
  -0.0000000000000000   -0.0000000000000000   11.1003847944368736
Mg Sc Se
7 16 32
direct
   0.5085752327282432    0.9994883784545082    0.5036006042278280 Mg
   0.2474474488403745    0.7487283146740920    0.7462207691878043 Mg
   0.5068316699825924    0.5035229884474245    0.0017806534981495 Mg
   0.7498213155534562    0.2523696679099914    0.7520091549730662 Mg
   0.2038621172576237    0.2905819769694746    0.2554974444624737 Mg
   0.7468678011838389    0.7612630039332396    0.2422902373243159 Mg
   0.9980585955475976    0.4952823239890832    0.5009713179249676 Mg
   0.1318682385571900    0.8686718865502752    0.3840514338380718 Sc
   0.3740829783380533    0.1236357707746966    0.8752956554445437 Sc
   0.3745770287100481    0.3818027640285519    0.6191619167987281 Sc
   0.1200465477278255    0.1202155677343432    0.6291417147240232 Sc
   0.1222339237092886    0.3819163941670580    0.8659560451553175 Sc
   0.3698676978241349    0.6260867378949553    0.3704683227438705 Sc
   0.3741581622756965    0.8738691070347694    0.1228624123290846 Sc
   0.1308142627170111    0.6236440596653980    0.1280764862763105 Sc
   0.6240172988662335    0.8750487604213152    0.8754569400673123 Sc
   0.8776423347290336    0.1160708888253715    0.3660044228620377 Sc
   0.8767913841659575    0.3778006346420244    0.1247474660498669 Sc
   0.6242945422636491    0.1244586303204818    0.1256488023941866 Sc
   0.6223365250350280    0.3744095251867309    0.3621215829562736 Sc
   0.8749101634742725    0.6246992012075994    0.8750558054730307 Sc
   0.8698607535627828    0.8752873937948406    0.6273532068532437 Sc
   0.6205501940165165    0.6182118638569073    0.6288863763896931 Sc
   0.3900486897311325    0.1137504873251278    0.1138374176780949 Se
   0.6123422456145244    0.3850687855896605    0.6155359216452015 Se
   0.6220323426341925    0.1257647335444129    0.8843522178790328 Se
   0.3806334835507904    0.3775699063949169    0.3802160015060528 Se
   0.3663738196548539    0.1345781420777984    0.6348655740512096 Se
   0.1326229064018844    0.8651595629563341    0.1328559131552869 Se
   0.1412428306168609    0.1397755396682314    0.8752498815669527 Se
   0.3657113586390712    0.8595477061496132    0.3713439961857363 Se
   0.3833721771941642    0.6158896570349084    0.6177866241376221 Se
   0.6097406579053172    0.8860395098015661    0.1136741471893638 Se
   0.6165021140017058    0.6189629037561180    0.3824659782880673 Se
   0.3827247147178846    0.8817785974394190    0.8836301276882393 Se
   0.3681815206361495    0.6362272469429484    0.1377209814505806 Se
   0.1370062074616160    0.3702148294098805    0.6285933857940740 Se
   0.1336882367293422    0.6305776430971902    0.3663561526462525 Se
   0.3660674285564628    0.3617072643107836    0.8571349083296690 Se
   0.8904328695492351    0.1262820389574408    0.6110495593067793 Se
   0.1101486511877133    0.3767774537694653    0.1225823176316265 Se
   0.1113948209372791    0.1100355132442571    0.3918175309587557 Se
   0.8813036216158029    0.3866209206814267    0.8777878289853471 Se
   0.8676982567507591    0.1338101300300731    0.1306094343553108 Se
   0.6364389689817808    0.8656244981634866    0.6454360548981392 Se
   0.6333214583595812    0.1340571911776734    0.3668093335642644 Se
   0.8720913879963489    0.8678907429301520    0.8549594844762498 Se
   0.8798408503014676    0.6194706010819989    0.1212609109315299 Se
   0.1252362256494277    0.8814087981324860    0.6188535626398666 Se
   0.1207995552171516    0.6250427860666846    0.8906621554537613 Se
   0.8833171253315631    0.8896391982402845    0.3776497862152991 Se
   0.8594916583139969    0.6247893055391809    0.6377291627474575 Se
   0.6329420687736771    0.3671620775331229    0.1329904147884161 Se
   0.6338910778767396    0.6402873518280461    0.8692371540008450 Se
   0.8626419305916687    0.3645688016377820    0.3629835004953360 Se
