Mg7 Sc16 Se32
1.0
  11.1003847944368736    0.0000000000000000    0.0000000000000000
   0.0000000000000000   11.1003847944368736    0.0000000000000000
  -0.0000000000000000   -0.0000000000000000   11.1003847944368736
Mg Sc Se
7 16 32
direct
   0.5024758731946863    0.9947468749608116    0.4943577534753452 Mg
   0.2497473363234421    0.7500959695824514    0.7459678957744131 Mg
   0.4987740337744230    0.5054819927057741    0.9942724727615908 Mg
   0.7481874902078255    0.2655246820458479    0.7390366728977124 Mg
   0.1772002790081953    0.1777810698991403    0.1878972250218201 Mg
   0.7498501757725007    0.7507611351046546    0.2485245776438679 Mg
   0.9857714170779125    0.5103721285064891    0.5001470316929271 Mg
   0.1257761048079652    0.8815366868534350    0.3675195492711896 Sc
   0.3742440859826503    0.1272214009055035    0.8768099840197809 Sc
   0.3747300314871251    0.3762667762260169    0.6249379500251808 Sc
   0.1240755766235374    0.1295720356157441    0.6231161450374849 Sc
   0.1250477374565696    0.3751292609428192    0.8751887652761458 Sc
   0.3771015744411014    0.6316449110314041    0.3784499258141328 Sc
   0.3776826134022120    0.8888697426449519    0.1223633265397317 Sc
   0.1262897792846797    0.6143128251077921    0.1211050898623629 Sc
   0.6230474663758657    0.8660001848144089    0.8590409545776466 Sc
   0.8829763356354440    0.1123412894787716    0.3835316617776055 Sc
   0.8770781386409502    0.3792930150314053    0.1281631702703074 Sc
   0.6155625246550573    0.1197670750781043    0.1189294773974980 Sc
   0.6438945483971683    0.3678047329070915    0.3769672944767422 Sc
   0.8770071268965807    0.6252137417586227    0.8782657018301269 Sc
   0.8746619873888752    0.8745065795660310    0.6262443498237988 Sc
   0.6237016066153215    0.6250933867039142    0.6230433811558037 Sc
   0.3828867317952027    0.1230457973998006    0.0987840393190051 Se
   0.6161589917085842    0.3830074592580388    0.6163913401329115 Se
   0.6202183237493742    0.1140714638503126    0.8772021760164794 Se
   0.3852221659888315    0.3878300134947701    0.3827233181730948 Se
   0.3816538054588068    0.1332495884335431    0.6227511267671441 Se
   0.1358950948480555    0.8657372691224771    0.1306546717323403 Se
   0.1201903119122555    0.1378966641383632    0.8636947750831272 Se
   0.3719172080760337    0.8818449900027271    0.3535720824425138 Se
   0.3833445769431443    0.6269855294642930    0.6001243422090228 Se
   0.6186719389802120    0.8874984289199809    0.1142732505042607 Se
   0.5997694640609073    0.6119343658484704    0.3794476636377144 Se
   0.3892023801731311    0.8944247323790204    0.8761606996616048 Se
   0.3654274479666727    0.6238427510430937    0.1307309124632072 Se
   0.1154943054695489    0.3646056365400260    0.6354526467745323 Se
   0.1511442738029617    0.6324882565603179    0.3690164085762505 Se
   0.3548644208489695    0.3651816432455850    0.8596900207584326 Se
   0.8759198494998813    0.1171929590123102    0.6176786107459512 Se
   0.1170253714426718    0.3828856253988300    0.1171676683156270 Se
   0.1003753013864165    0.1148159553192573    0.3727298948248227 Se
   0.8796787203319808    0.3792560005500177    0.8790168126353551 Se
   0.8578897979150156    0.1306322539709568    0.1274367324092713 Se
   0.6306412307524655    0.8467081378129696    0.6340406634056907 Se
   0.6209483505262666    0.1271431632983605    0.3737646410963555 Se
   0.8512865248105668    0.8788094682095048    0.8722872615166700 Se
   0.8872455640215168    0.6296918758692224    0.1283110647202825 Se
   0.1146767535150834    0.8796589598218720    0.6192369232937184 Se
   0.1236553222739608    0.6037563795584713    0.8799796138752285 Se
   0.8723685249974742    0.8873437076848455    0.3759275691734389 Se
   0.8586600061825512    0.6342212060102660    0.6505845175816519 Se
   0.6328611532199527    0.3668805951684604    0.1326036292437112 Se
   0.6322581583241590    0.6319401212472300    0.8672152578812331 Se
   0.8721535301877825    0.3540034348852763    0.3684857286470819 Se
