Mg7 Sc16 Se32
1.0
  11.1003847944368736    0.0000000000000000    0.0000000000000000
   0.0000000000000000   11.1003847944368736    0.0000000000000000
  -0.0000000000000000   -0.0000000000000000   11.1003847944368736
Mg Sc Se
7 16 32
direct
   0.4933704724391280    0.9820530846262032    0.4884406126753713 Mg
   0.2474982535004368    0.7551474344349327    0.7488479714603209 Mg
   0.5148359248632022    0.5103283644842601    0.9868604713490960 Mg
   0.7548905426765499    0.2528266641874743    0.7463898662548413 Mg
   0.9927646777561756    0.0011414688292044    0.0044444259427383 Mg
   0.7566870866078772    0.7513401742912060    0.2600460047505004 Mg
   0.0823993253783746    0.4420972909750412    0.4240927051807019 Mg
   0.1227958374202442    0.8699959540867122    0.3787494980120159 Sc
   0.3520778680437782    0.1288546372914761    0.8735722552090742 Sc
   0.3654178948629294    0.3682810828411664    0.6232561314441937 Sc
   0.1279037301351958    0.1252918534001236    0.6263003801577136 Sc
   0.1237842766254979    0.3761639117200478    0.8742492974458131 Sc
   0.3719190654035049    0.6254972506016618    0.3699826904860228 Sc
   0.3912928781355173    0.8819542205661355    0.1401352689224231 Sc
   0.1260433313820589    0.6242114983081978    0.1252141373453676 Sc
   0.6290847242454115    0.8872950441519437    0.8695498354878712 Sc
   0.8654491178068415    0.1320154213554342    0.3679837484128171 Sc
   0.8735437340644812    0.3740408830556365    0.1208628162307927 Sc
   0.6335578914759904    0.1211135629515461    0.1278358234130481 Sc
   0.6182380915269657    0.3856820913044912    0.3892697878632231 Sc
   0.8789724594483417    0.6216219083712844    0.8760641515276550 Sc
   0.8847664678993049    0.8762203459529498    0.6358753076130406 Sc
   0.6306061905940956    0.6460190195677364    0.6273703855131645 Sc
   0.3766615066902493    0.1201910081824236    0.1182141735211751 Se
   0.6171039950700009    0.3828805175667084    0.6169349488848100 Se
   0.6255925426061596    0.1049790568726431    0.8824553268767633 Se
   0.3860193651763484    0.3769236580891315    0.3814505281086210 Se
   0.3705449141406968    0.1287613322815534    0.6132617161004695 Se
   0.1270436533234278    0.8743634380966649    0.1401983127956525 Se
   0.1528981656202042    0.1292344449773082    0.8722617602887457 Se
   0.3668763253996997    0.8818139680420108    0.3644333972804367 Se
   0.3782288219937497    0.6142895700562375    0.6221923352294664 Se
   0.6163750949443189    0.8815069215499460    0.1174334925768083 Se
   0.6163277343399350    0.6191360232999358    0.3842784836174699 Se
   0.3853351502334204    0.8710542223389706    0.8715102182741309 Se
   0.3652735865779072    0.6364423146317172    0.1377320595724121 Se
   0.1322432006399286    0.3683099649293470    0.6318732300423223 Se
   0.1304712026431415    0.6357383192481414    0.3723550287087137 Se
   0.3648700816156976    0.3699383058565369    0.8725825694728910 Se
   0.8935665406273319    0.1127657127156088    0.6301579240729690 Se
   0.1175356104042730    0.3991015758082146    0.1329399515725870 Se
   0.1254609265265955    0.1024729094626704    0.3786168969691444 Se
   0.8804299616365383    0.3864851359897904    0.8810830292202639 Se
   0.8516061010779283    0.1372948544643632    0.1247193923335790 Se
   0.6323390096119587    0.8696016974686263    0.6303545462367069 Se
   0.6365877925956175    0.1334645986877852    0.3646657779335885 Se
   0.8536108742306465    0.8536409181392356    0.8606169007109014 Se
   0.8715797856548971    0.6043609930960053    0.1309556023062364 Se
   0.1111571381007651    0.8723407897277600    0.6270933409088545 Se
   0.1118323998182824    0.6205930688699378    0.9025174158861079 Se
   0.8864479386501675    0.8794331880286540    0.3763440291027862 Se
   0.8716379156796487    0.6321116747942778    0.6258863441675906 Se
   0.6380773437488915    0.3663530675872698    0.1276312433228546 Se
   0.6342485369627033    0.6307961610044460    0.8655376371271634 Se
   0.8740172883048715    0.3600237198575205    0.3759705297643914 Se
