Mg7 Sc16 Se32
1.0
  11.1003847944368736    0.0000000000000000    0.0000000000000000
   0.0000000000000000   11.1003847944368736    0.0000000000000000
  -0.0000000000000000   -0.0000000000000000   11.1003847944368736
Mg Sc Se
7 16 32
direct
   0.4996183477593719    0.9978544274650997    0.4984507770802875 Mg
   0.2510595970500453    0.7495355441252288    0.7513469967911859 Mg
   0.5008163080248403    0.4989578398222340    0.0029509667296630 Mg
   0.7515319937140654    0.2505406319058510    0.7493161966303012 Mg
   0.0009201179353830    0.0022288194580715    0.0016689319919868 Mg
   0.7501626943472326    0.7500995385717208    0.2495948519587092 Mg
   0.0000030708690506    0.5004233739152735    0.4999939830645144 Mg
   0.1230683695450275    0.8735335285888992    0.3763000301840416 Sc
   0.3753951610565054    0.1247906211122455    0.8751997988877541 Sc
   0.3716877280826311    0.3765020464282404    0.6229677629060952 Sc
   0.1253925171927057    0.1253764558226605    0.6255360633846527 Sc
   0.1242886797934676    0.3740300922315232    0.8744344805105598 Sc
   0.3750221753972159    0.6264493120941788    0.3747261043839409 Sc
   0.3754967665768175    0.8751588675770422    0.1252365426053517 Sc
   0.1254991793511368    0.6248952607751712    0.1249211520017421 Sc
   0.6237946572272820    0.8724101313518060    0.8725685109340499 Sc
   0.8746328708688595    0.1219126251434869    0.3754342572130845 Sc
   0.8758329660169416    0.3756421632220012    0.1255014533769659 Sc
   0.6245642750466404    0.1260527137770231    0.1279872324387827 Sc
   0.6251405271056801    0.3750048285209392    0.3751105862094478 Sc
   0.8761142469211837    0.6239749533739779    0.8754808836159842 Sc
   0.8768014329221385    0.8745891055241950    0.6265446671806446 Sc
   0.6268502547628287    0.6257439098952087    0.6264092721369172 Sc
   0.3864710066609910    0.1155165872572802    0.1179678733834695 Se
   0.6188988170132576    0.3842587396763746    0.6169408115400749 Se
   0.6178844348294246    0.1132808923014868    0.8807145645599490 Se
   0.3820937991857494    0.3818364803913401    0.3828793537781439 Se
   0.3675600637618210    0.1337228816553732    0.6330472724689155 Se
   0.1343456980054835    0.8712397473633748    0.1325543125972301 Se
   0.1348818884213325    0.1310592916594351    0.8661303814272443 Se
   0.3650026377415846    0.8677118592356460    0.3682667719902643 Se
   0.3827166849030189    0.6134348972526785    0.6169156863722506 Se
   0.6171011353108806    0.8828204655159081    0.1184842810801647 Se
   0.6174589729550485    0.6200202463534563    0.3822844403938989 Se
   0.3827719266730427    0.8843553098409636    0.8817711241147520 Se
   0.3662955226392474    0.6324814006465740    0.1332916697442638 Se
   0.1336832030790501    0.3662989492545526    0.6343301919507438 Se
   0.1316256337695864    0.6312064223838176    0.3687448896511015 Se
   0.3676012626551378    0.3659014263825303    0.8655279329276311 Se
   0.8823652253420058    0.1169363432224016    0.6178591173419495 Se
   0.1178861267875242    0.3804398993401599    0.1187035712119135 Se
   0.1199893572166980    0.1149242754447593    0.3827233978471385 Se
   0.8832042734893918    0.3831866011111892    0.8827812078769345 Se
   0.8658802952755060    0.1317845480807377    0.1328225053774509 Se
   0.6329390416187859    0.8662236566415739    0.6322556756073772 Se
   0.6336409371064684    0.1330472662089124    0.3665155502561668 Se
   0.8641620071794044    0.8703177183195793    0.8665152959466823 Se
   0.8831332743516225    0.6174759653512919    0.1171744683582642 Se
   0.1167774780380245    0.8815830708988311    0.6172597110465264 Se
   0.1151716150756200    0.6160731059730746    0.8793529649555459 Se
   0.8827560444053847    0.8825498733419285    0.3825228640905376 Se
   0.8659257292006753    0.6312079868436815    0.6347609216883128 Se
   0.6356446910049082    0.3663166685030527    0.1350504696393544 Se
   0.6338557861076617    0.6334690611838274    0.8639334574549266 Se
   0.8645688318703612    0.3662192015729849    0.3673468307971838 Se
