Mg7 Sc16 Se32
1.0
  11.1003847944368736    0.0000000000000000    0.0000000000000000
   0.0000000000000000   11.1003847944368736    0.0000000000000000
  -0.0000000000000000   -0.0000000000000000   11.1003847944368736
Mg Sc Se
7 16 32
direct
   0.4999369082919746    0.9968116100851107    0.5016266250660649 Mg
   0.2095379606995506    0.2116462738506137    0.1773018198909467 Mg
   0.4994318989007904    0.5006894727935615    0.9986429517653255 Mg
   0.7484223209504258    0.2499497547039451    0.7492969646398338 Mg
   0.9990519455178511    0.0006801580094025    0.0003703144427228 Mg
   0.7552725841053645    0.7486643115457075    0.2509494665485461 Mg
   0.0067378443998526    0.4991070684556487    0.5013650947687067 Mg
   0.1257285473653302    0.8736170037049438    0.3701698395219724 Sc
   0.3727433640934125    0.1260380346927635    0.8741857125577023 Sc
   0.3742191702930976    0.3804758363224212    0.6225564218787070 Sc
   0.1219221175890960    0.1234219258908006    0.6218374292634790 Sc
   0.1253706188137392    0.3731719955725813    0.8752110275831865 Sc
   0.3754450997762379    0.6204972904306949    0.3716404062440266 Sc
   0.3708846171465246    0.8728759517770702    0.1302556838149921 Sc
   0.1237816073292524    0.6253746674429658    0.1231537722056772 Sc
   0.6231743596423673    0.8761225347180657    0.8745116820778538 Sc
   0.8704425910882588    0.1258957080814671    0.3740993933839064 Sc
   0.8747080830496349    0.3750897716262155    0.1243130316290104 Sc
   0.6310641162504834    0.1226042917982930    0.1247786965928289 Sc
   0.6244195490948942    0.3747822306105550    0.3755865139895551 Sc
   0.8688767919663173    0.6233245366560004    0.8780845004935167 Sc
   0.8723082776651155    0.8732583484248519    0.6246529038457080 Sc
   0.6294189160652937    0.6268468638334600    0.6253358221375149 Sc
   0.3837985738968793    0.1223569197880268    0.1148451728495469 Se
   0.6158824438840947    0.3836031226876042    0.6154512961071021 Se
   0.6169628990849161    0.1162895120797514    0.8850184783999173 Se
   0.3812868188078882    0.3827815801910035    0.3773359536959021 Se
   0.3674510728234692    0.1315795978133406    0.6337804232294976 Se
   0.1318649945998496    0.8693334641761292    0.1370553834873354 Se
   0.1335888373725878    0.1318332974277939    0.8661365072220322 Se
   0.3643722335351559    0.8633221711076446    0.3612650375704891 Se
   0.3842914777850541    0.6156630000216745    0.6187633779581024 Se
   0.6206988963302625    0.8819590180597782    0.1228829736646738 Se
   0.6167290496214646    0.6177033510316370    0.3829519731673600 Se
   0.3841282420052626    0.8880796358348982    0.8779555505258767 Se
   0.3703752068256440    0.6332358417119415    0.1351439060764662 Se
   0.1368307030220417    0.3686577965625747    0.6337776408942593 Se
   0.1331650144233134    0.6329244172524534    0.3669961627423383 Se
   0.3668073027931860    0.3661806491173620    0.8674669431762977 Se
   0.8806571924102162    0.1168857900431577    0.6148187296365700 Se
   0.1136251377363787    0.3833989904167197    0.1161436098800609 Se
   0.1147861294221853    0.1190682855631891    0.3780643743721852 Se
   0.8815917576287968    0.3812804709293389    0.8843814245349247 Se
   0.8626822381069797    0.1350710730143977    0.1376253014107474 Se
   0.6294165409511977    0.8607128808310968    0.6340285204702364 Se
   0.6343346159627310    0.1324480896589116    0.3659399103397102 Se
   0.8650533346544234    0.8637916721180853    0.8723096948032703 Se
   0.8844311448450879    0.6173986237997233    0.1219763158500990 Se
   0.1153859121294247    0.8824845577362254    0.6131327196863220 Se
   0.1172191710335733    0.6170632204419380    0.8831618188040309 Se
   0.8822270078796193    0.8844793748026588    0.3840981272612962 Se
   0.8654876574976174    0.6300470228239106    0.6336621218156213 Se
   0.6349378140347828    0.3652790338662743    0.1348974971761854 Se
   0.6289853340487018    0.6345131849661908    0.8686547037018956 Se
   0.8638736894169055    0.3668992833298098    0.3700133783873796 Se
