Mg7 Sc16 Se32
1.0
  11.1003847944368736    0.0000000000000000    0.0000000000000000
   0.0000000000000000   11.1003847944368736    0.0000000000000000
  -0.0000000000000000   -0.0000000000000000   11.1003847944368736
Mg Sc Se
7 16 32
direct
   0.4995672974405139    0.9964678689825561    0.5016709291400857 Mg
   0.2487822258486809    0.7476400474466842    0.7523052434720969 Mg
   0.4997729044993342    0.4980329750234993    0.9985262737722126 Mg
   0.7495206519430703    0.2499634780677522    0.7478321189430863 Mg
   0.9990089578890243    0.9996117732423501    0.9991057201835749 Mg
   0.7500362591043780    0.7507879476726190    0.2499711723992869 Mg
   0.2463574566906774    0.2331269804103698    0.2103355026342494 Mg
   0.1213488172985503    0.8765523082021892    0.3766411480184750 Sc
   0.3752208316250745    0.1247266467611467    0.8748755475049533 Sc
   0.3741611128626581    0.3737816723997701    0.6233918811401195 Sc
   0.1233563914997120    0.1225331276897074    0.6217960423728175 Sc
   0.1266896282303791    0.3753202558716121    0.8739794201022012 Sc
   0.3768722967308205    0.6250755110188864    0.3788584025373595 Sc
   0.3746299523617025    0.8746607777958689    0.1253260773166729 Sc
   0.1253788718940043    0.6252223615449408    0.1252924367790364 Sc
   0.6244273647587383    0.8777406460338227    0.8755072528512955 Sc
   0.8750277312144985    0.1249964875155221    0.3750043261243884 Sc
   0.8759107809362159    0.3743418915236880    0.1252450311816745 Sc
   0.6282424593269210    0.1273628049760836    0.1242165099654740 Sc
   0.6228478785334516    0.3758126616401370    0.3749547657229023 Sc
   0.8748440477243696    0.6247458717005869    0.8762030148962477 Sc
   0.8763208857973497    0.8755508085246353    0.6224225364221446 Sc
   0.6273208183808062    0.6219657762149911    0.6248313259317972 Sc
   0.3814267427199598    0.1178870035828559    0.1177285295820796 Se
   0.6173273053939069    0.3825397164065294    0.6174027002351130 Se
   0.6171019834571098    0.1174443740374519    0.8833160789479633 Se
   0.3808550898044821    0.3808431221657823    0.3825338051436474 Se
   0.3682599098849021    0.1345123835613895    0.6294181904623422 Se
   0.1330496744762516    0.8672097639555993    0.1327286062946320 Se
   0.1328220839592965    0.1330862772035670    0.8669199199607814 Se
   0.3683132556271120    0.8635434548840967    0.3659770006062378 Se
   0.3794938883996758    0.6174000011531171    0.6188268101787467 Se
   0.6159508290596771    0.8806476974175205    0.1153254890030470 Se
   0.6167460872569345    0.6175330341700112    0.3833823009955987 Se
   0.3833746231302660    0.8815312553054500    0.8838196856601301 Se
   0.3672575392780701    0.6307241267348004    0.1361143459481267 Se
   0.1338742538960382    0.3682397469422841    0.6299826981163248 Se
   0.1287275741918064    0.6336272513768176    0.3681547712161988 Se
   0.3659898382927925    0.3676726124586521    0.8644473780834109 Se
   0.8822769147879670    0.1176235927683380    0.6171482473672287 Se
   0.1171644626868866    0.3828788019313022    0.1167790294522435 Se
   0.1178520991043407    0.1183857209500330    0.3858474611399830 Se
   0.8834556256165698    0.3828989246653257    0.8822800915663356 Se
   0.8668841564726435    0.1328449563949107    0.1329101816819625 Se
   0.6329992981079621    0.8689394979199537    0.6307776046289069 Se
   0.6322373722672257    0.1306415747098765    0.3651396625810235 Se
   0.8678844435441992    0.8666418404539407    0.8682450776650513 Se
   0.8830798283482452    0.6146446634530374    0.1187220232955542 Se
   0.1172705177017089    0.8835875710273562    0.6193808176179336 Se
   0.1186521811961241    0.6180331588645757    0.8803567333917836 Se
   0.8823510775296911    0.8826133476210799    0.3872490530126016 Se
   0.8677372282765864    0.6335546411126148    0.6327469838343005 Se
   0.6327478827010591    0.3705051704061965    0.1323202378376719 Se
   0.6358988940973379    0.6335973582324849    0.8701329851916343 Se
   0.8646927631741895    0.3652809751737324    0.3673649993300571 Se
