Mg7 Sc16 Se32
1.0
  11.1003847944368736    0.0000000000000000    0.0000000000000000
   0.0000000000000000   11.1003847944368736    0.0000000000000000
  -0.0000000000000000   -0.0000000000000000   11.1003847944368736
Mg Sc Se
7 16 32
direct
   0.4956636750141740    0.0097687724923502    0.4996317405647031 Mg
   0.2439759068263040    0.7623845426015631    0.7625934971000021 Mg
   0.5020522953920501    0.4819875278992984    0.9977252937115717 Mg
   0.7543728547213460    0.2578765396739828    0.7438466122902471 Mg
   0.1079583473912201    0.1702233859757578    0.1474028678334102 Mg
   0.7507055771797457    0.7452739654948575    0.2382765548335453 Mg
   0.9827893316149650    0.4898096863670938    0.4890186205868645 Mg
   0.1251274857871395    0.8753992278187328    0.3822663143846812 Sc
   0.3604341646368389    0.1404029179425379    0.8691295822350914 Sc
   0.3720615133600646    0.3829899038616422    0.6270441745345267 Sc
   0.1208176527931950    0.1298251032784458    0.6228186073663609 Sc
   0.1303686521660955    0.3636560609424563    0.8819089938432112 Sc
   0.3692001707178172    0.6439607561174180    0.3868393166478381 Sc
   0.3748404794332165    0.8755307152330042    0.1251514566856221 Sc
   0.1252803825785510    0.6297716727594238    0.1199979396001880 Sc
   0.6242761835408100    0.8706886166546504    0.8710010504962865 Sc
   0.8907130500395304    0.1304932531718848    0.3616187211460147 Sc
   0.8638178092187863    0.3574232873528802    0.1201803348414181 Sc
   0.6225564846403735    0.1238375073123325    0.1147549939322399 Sc
   0.6272933523147741    0.3821428035319288    0.3761663322557628 Sc
   0.8740375880984105    0.6243133732684525    0.8768498020937180 Sc
   0.8857488338967004    0.8561533773286155    0.6289181059668684 Sc
   0.6144395200710870    0.6304877923758199    0.6307797852791923 Sc
   0.3817133709432859    0.1229877108695682    0.1182729718895767 Se
   0.6276993610920345    0.3748570818862462    0.6192010403347034 Se
   0.6170683959992145    0.1178400922155265    0.8784218472500052 Se
   0.3816509177198790    0.3884408032637487    0.3764412586865102 Se
   0.3783631412003294    0.1411789678465574    0.6202542903610114 Se
   0.1223136425728486    0.8489791152416037    0.1396379878328547 Se
   0.1328659345882452    0.1265403273089513    0.8571311228883602 Se
   0.3510666261580205    0.8624909016103148    0.3693359013146743 Se
   0.3833742732506271    0.6181859873751310    0.6179864480965697 Se
   0.6070234956343764    0.9014294237226406    0.1080008577910191 Se
   0.6125053913316294    0.6190559502156163    0.3873779835356521 Se
   0.3781221160143398    0.8833047897503918    0.8853293925257136 Se
   0.3536659952583013    0.6466018639957679    0.1416226321866098 Se
   0.1204834375047062    0.3555947702817504    0.6363714281576108 Se
   0.1401251706301685    0.6209935864732870    0.3809252630707730 Se
   0.3671900286907401    0.3672904444194054    0.8670534020902171 Se
   0.8719067522963263    0.1203512609860004    0.6024180782353602 Se
   0.1057906287715736    0.3747322723641170    0.1140641437665287 Se
   0.1249108926643081    0.0975302895017212    0.3888576776444264 Se
   0.8811321190299637    0.3718131839750312    0.8820215814759692 Se
   0.8605042757108974    0.1284854087209454    0.1228270438055117 Se
   0.6328558931609355    0.8678364302419789    0.6329660986135308 Se
   0.6139134730198840    0.1411036124435951    0.3703029246159429 Se
   0.8624820309746417    0.8718816861037222    0.8605105871978312 Se
   0.8814516936692276    0.6187437785718031    0.1155406661269672 Se
   0.1154345346669493    0.8816972876436672    0.6144552867901699 Se
   0.1147876368338077    0.6206839291372830    0.8734422773731748 Se
   0.8761759382298702    0.8781047002222954    0.3663423191403022 Se
   0.8660719980373812    0.6275060997591873    0.6255953245529209 Se
   0.6324159509733694    0.3677558621542200    0.1322302855164479 Se
   0.6391779433544407    0.6309631429799579    0.8764714373542989 Se
   0.8737991505157994    0.3637862594057691    0.3745680801580257 Se
