Mg7 Sc16 Se32
1.0
  11.1003847944368736    0.0000000000000000    0.0000000000000000
   0.0000000000000000   11.1003847944368736    0.0000000000000000
  -0.0000000000000000   -0.0000000000000000   11.1003847944368736
Mg Sc Se
7 16 32
direct
   0.5000845770913032    0.9962836238058221    0.5031725780964830 Mg
   0.2474602013783785    0.7506089627489404    0.7512496760848253 Mg
   0.5011944999039026    0.4853443261055891    0.0059591214496372 Mg
   0.7454364344103626    0.2459613175687229    0.7410483160824888 Mg
   0.0001645477284509    0.9998991341252930    0.0015194347425009 Mg
   0.7535166589722619    0.7499377561036645    0.2596234893092240 Mg
   0.0067553992574730    0.4952233509286070    0.4863855351102859 Mg
   0.1294584094253896    0.8762782225451908    0.3788179974133807 Sc
   0.3873366116600261    0.1192476884344878    0.8681842237542432 Sc
   0.3659885321075244    0.3778715845007912    0.6246465153512982 Sc
   0.1162181701272434    0.1313710081982294    0.6344014873247091 Sc
   0.1193454921181288    0.3835924725044469    0.8724217341428238 Sc
   0.3709887774657074    0.6240314545869502    0.3741647646036612 Sc
   0.3728559111532700    0.8650818829455912    0.1286059838717739 Sc
   0.1250015484598118    0.6250069870885592    0.1249462931994599 Sc
   0.6241121551228132    0.8844938614351089    0.8838608895518254 Sc
   0.8735395899817379    0.1282263097773757    0.3733381392537700 Sc
   0.8727458551921068    0.3747248719855370    0.1296493424740724 Sc
   0.6217346413132210    0.1185439756589275    0.1292776626706196 Sc
   0.6307898176156721    0.3682972636742710    0.3657296363702343 Sc
   0.8730386113851716    0.6222342894176507    0.8745790553030138 Sc
   0.8709898074720683    0.8754207370424382    0.6267887688147269 Sc
   0.6256011959927298    0.6314211453452647    0.6256081278355093 Sc
   0.3751720326462793    0.1108385679578043    0.1237582672447240 Se
   0.6175326497399637    0.3754865124801557    0.6284934942127022 Se
   0.6207406524987646    0.1219824748750581    0.8771581414507085 Se
   0.3709608882301830    0.3891833667728240    0.3795258221539785 Se
   0.3664663190875283    0.1320494571986850    0.6319418021280989 Se
   0.1300916349123535    0.8705590731768891    0.1229260438084244 Se
   0.1181846663501887    0.1294867448405428    0.8665959973235675 Se
   0.3730906275016602    0.8758334626002549    0.3612797275267067 Se
   0.3888324909585842    0.6114034044108623    0.6047795609293470 Se
   0.6248318624280073    0.8920087006139625    0.1134979285515734 Se
   0.6024436363900273    0.6143869333439614    0.3745056601016170 Se
   0.3882621980736031    0.8848345984966320    0.8760809337411725 Se
   0.3703092552819849    0.6320087745888013    0.1302224071440416 Se
   0.1372386241279505    0.3799420035982540    0.6307420462000783 Se
   0.1298152140078897    0.6298417626718759    0.3652237385010517 Se
   0.3659925068217307    0.3641146181516777    0.8587713401405438 Se
   0.8702441095910501    0.1163946807879298    0.6204030048491377 Se
   0.1115721838833306    0.3754247551649827    0.1186402882869873 Se
   0.1170324174698309    0.1172588030906870    0.3835455025400186 Se
   0.8762326007536976    0.3818661576507340    0.8825358047523679 Se
   0.8527303995114586    0.1373739793351686    0.1290254345337201 Se
   0.6355359217870346    0.8683400796200541    0.6284203148086086 Se
   0.6360126529196124    0.1303987044018615    0.3636887107759419 Se
   0.8688922029038172    0.8619014869323030    0.8649593683072619 Se
   0.8818268753885035    0.6198256673638611    0.1221803763088279 Se
   0.1241230441750964    0.8824827482418527    0.6062885351664519 Se
   0.1137914293964327    0.6260666933877064    0.8853060823577595 Se
   0.8852514838461589    0.8707716619224598    0.3778756222232506 Se
   0.8679104647531071    0.6352430678202513    0.6324308862320338 Se
   0.6349965758996329    0.3563207053266497    0.1440279775810511 Se
   0.6327646645712858    0.6334494599716153    0.8674514358662306 Se
   0.8621476665123046    0.3695927887401848    0.3656854308041970 Se
