Mg7 Sc16 Se32
1.0
  11.1003847944368736    0.0000000000000000    0.0000000000000000
   0.0000000000000000   11.1003847944368736    0.0000000000000000
  -0.0000000000000000   -0.0000000000000000   11.1003847944368736
Mg Sc Se
7 16 32
direct
   0.4959151319665430    0.0039559373371729    0.4973738573267256 Mg
   0.2527339214973505    0.7522381229630068    0.7550284136945372 Mg
   0.5038027341356990    0.5039640221061223    0.9913940144830251 Mg
   0.7409493767926894    0.2424495334962192    0.7495031432448406 Mg
   0.9869644580451927    0.0002640750863641    0.9812745481496501 Mg
   0.7544508305555887    0.7505967056369162    0.2533108495167712 Mg
   0.0018218097293976    0.5020172257303139    0.4952589458532308 Mg
   0.1196734378084487    0.8623039389046917    0.3807310440714042 Sc
   0.3645530588334486    0.1051804934196094    0.8681839593878239 Sc
   0.3838325973931835    0.3691966103429755    0.6279138322224179 Sc
   0.1271782618618301    0.1238848602726158    0.6247151722369503 Sc
   0.1245653936294467    0.3748203534947290    0.8749045200642479 Sc
   0.3809727568282475    0.6208824866894761    0.3804300481068028 Sc
   0.3636934785541851    0.8844456068120798    0.1469017645457495 Sc
   0.1280024745544084    0.6263375226439902    0.1240924217411723 Sc
   0.6140846603752369    0.8633423963232784    0.8834751587624031 Sc
   0.8735761245590994    0.1323694747838093    0.3808088189054065 Sc
   0.8633754126473746    0.3823948866733046    0.1078494890726192 Sc
   0.6269025349703836    0.1231499182671906    0.1180202789433423 Sc
   0.6253182042234160    0.3946777236607146    0.3925341872180590 Sc
   0.8578208315063430    0.6132505164859940    0.8689812529801035 Sc
   0.8719484325157707    0.8832748053676529    0.6139469787375168 Sc
   0.6228891087327491    0.6235962828243408    0.6255497983142245 Sc
   0.3931188393224797    0.1195958100710003    0.1060990547907550 Se
   0.5989580155689544    0.3780271254002949    0.6217797444334958 Se
   0.6332687013984658    0.1018874738592564    0.8901419522073084 Se
   0.3956717461240157    0.3937381564294413    0.3866154027897245 Se
   0.3675705301242957    0.1298178727119640    0.6234931322407593 Se
   0.1378156178944090    0.8743505445135654    0.1150638358903978 Se
   0.1128805741780173    0.1225669262150518    0.8578831241166313 Se
   0.3556849744170191    0.8674338026643416    0.3685330914283061 Se
   0.3829877198013021    0.6154052824519325    0.6177194227417679 Se
   0.6071559320908224    0.8933539626611430    0.1132728549386587 Se
   0.6114789850269337    0.6153679469768277    0.3797511351853929 Se
   0.3958662882805961    0.8907526601990956    0.8889972967127295 Se
   0.3692002894595504    0.6313161977299065    0.1322348943302527 Se
   0.1228683837725417    0.3741900089420269    0.6256421131975866 Se
   0.1435106251300800    0.6394811173722977    0.3744201101759680 Se
   0.3586395141569273    0.3766457483695304    0.8457937685498963 Se
   0.8848992836274724    0.1165444257757395    0.6219233853352745 Se
   0.1349912386973424    0.3967421978743885    0.1171210539451469 Se
   0.0968883348993084    0.1012554992945000    0.3785225860881562 Se
   0.8743556454328122    0.3871470145720994    0.8987532650055809 Se
   0.8925122280642210    0.1287513222728273    0.1322088102499543 Se
   0.6243392575416685    0.8541646367421030    0.6437156233247150 Se
   0.6374620231831881    0.1318396981613805    0.3718684983979532 Se
   0.8576228815747694    0.8731563515628842    0.8515707849094969 Se
   0.8854165233807323    0.6206036406076380    0.1103752004333224 Se
   0.1080428488458380    0.8759949543868437    0.6194716835558631 Se
   0.1228275758290372    0.6183516366183637    0.8665710992295783 Se
   0.8809333239468089    0.8759563952994751    0.3748955824798578 Se
   0.8678213160524400    0.6129843888328063    0.6369707345046242 Se
   0.6484661912170354    0.3589990386293742    0.1422781682255537 Se
   0.6296732124748569    0.6322264977730113    0.8671436364161587 Se
   0.8608661957935871    0.3655131833388837    0.3667411940009445 Se
