Mg7 Sc16 Se32
1.0
  11.1003847944368736    0.0000000000000000    0.0000000000000000
   0.0000000000000000   11.1003847944368736    0.0000000000000000
  -0.0000000000000000   -0.0000000000000000   11.1003847944368736
Mg Sc Se
7 16 32
direct
   0.5002940550161273    0.0008934475979779    0.4967997450817438 Mg
   0.1963914434524780    0.2326899235411762    0.1872050840222372 Mg
   0.5000644334241772    0.4999453922734581    0.9994403015681406 Mg
   0.7478472292207595    0.2520541553795912    0.7450257970868995 Mg
   0.0010001423581624    0.0012577258108994    0.0004611666786290 Mg
   0.7506246614086459    0.7461438986417223    0.2497802807244627 Mg
   0.9944009733593461    0.4967579432662603    0.5016774580786773 Mg
   0.1264884798459713    0.8732880991384298    0.3776192281269956 Sc
   0.3834889611733532    0.1264192791382345    0.8716075162138485 Sc
   0.3756991571132254    0.3799812974405404    0.6225748418911815 Sc
   0.1288661936742972    0.1295208148093917    0.6336903350395154 Sc
   0.1302669952281739    0.3781045489141671    0.8781596277013702 Sc
   0.3737681487341957    0.6256967131877430    0.3743880442189679 Sc
   0.3756564729749883    0.8700943092477458    0.1178366286050545 Sc
   0.1304853062177027    0.6251806076806182    0.1272287979663488 Sc
   0.6262766347277615    0.8742101516287537    0.8683689246744161 Sc
   0.8742586432204369    0.1267455463715609    0.3742061403116225 Sc
   0.8750406486914512    0.3753040586919909    0.1249648884809815 Sc
   0.6246996019952175    0.1272105518567196    0.1257403863627531 Sc
   0.6242167764512679    0.3759603288794516    0.3762916345161982 Sc
   0.8725019807569585    0.6283177120827023    0.8794594922963090 Sc
   0.8764460592863923    0.8815588075832301    0.6278765294969625 Sc
   0.6215191610089165    0.6329252619582841    0.6271470329770521 Sc
   0.3823981801756690    0.1199364415858406    0.1134639329261945 Se
   0.6107126271026670    0.3767508972403227    0.6138987888492440 Se
   0.6150397534980598    0.1175384518359514    0.8892778669740360 Se
   0.3839229869111347    0.3827626935543501    0.3826639215047858 Se
   0.3703623439961040    0.1328432964617382    0.6375204452263432 Se
   0.1378245026430065    0.8692884270315517    0.1363439843331201 Se
   0.1318254526401886    0.1285005410940148    0.8672051096602591 Se
   0.3689558948585764    0.8699848558915235    0.3656616216380269 Se
   0.3805753572807650    0.6193511868329810    0.6121574761213154 Se
   0.6211269932123412    0.8839832653952472    0.1130092779731711 Se
   0.6235461672909758    0.6242453247250084    0.3795399681560264 Se
   0.3872929347127394    0.8840507751509017    0.8831588736651884 Se
   0.3657241635608821    0.6321521581517525    0.1357729295688581 Se
   0.1329511866148503    0.3689509281658829    0.6241924439878495 Se
   0.1310951321124701    0.6258925869988339    0.3683916674538653 Se
   0.3662332889828036    0.3676960805580395    0.8665490093541617 Se
   0.8886985051798687    0.1081114372462811    0.6181134167928667 Se
   0.1159835285572684    0.3814496772952755    0.1151854938134268 Se
   0.1232448894283164    0.1184185784072097    0.3834767376480425 Se
   0.8877770954546564    0.3844013023526944    0.8812234384726819 Se
   0.8712806454833566    0.1269534478257205    0.1400380902750042 Se
   0.6364973901761543    0.8690862689088767    0.6388164824246088 Se
   0.6301424322444298    0.1289414136055221    0.3685894819864054 Se
   0.8727762409614201    0.8614546246738616    0.8674376091529944 Se
   0.8846068067753661    0.6196248250556728    0.1183793978928974 Se
   0.1130587460640219    0.8889652361188325    0.6103236766709953 Se
   0.1187005740124153    0.6087257913009562    0.8834112561210847 Se
   0.8838163103903810    0.8791587364194243    0.3797720414182949 Se
   0.8650855181423648    0.6286715989896299    0.6310974433794696 Se
   0.6269331797445843    0.3668802912369133    0.1324747946418059 Se
   0.6354002689239423    0.6334547406408507    0.8651795975689497 Se
   0.8670948125342889    0.3672768360188653    0.3670126396882409 Se
