Mg7 Sc16 Se32
1.0
  11.1003847944368736    0.0000000000000000    0.0000000000000000
   0.0000000000000000   11.1003847944368736    0.0000000000000000
  -0.0000000000000000   -0.0000000000000000   11.1003847944368736
Mg Sc Se
7 16 32
direct
   0.5010792171141493    0.9991278943484262    0.4981920061484090 Mg
   0.2439984850203933    0.7516030690241754    0.7526099938778543 Mg
   0.5001744610706292    0.5020858659850774    0.0006240722118979 Mg
   0.7505942392966153    0.2487461045174237    0.7492531543903007 Mg
   0.9971090151595747    0.9990045047000710    0.0009322186224048 Mg
   0.7542451046532327    0.7536316181221941    0.2524815322407150 Mg
   0.0027771230419014    0.4994948269270600    0.4996893391697836 Mg
   0.1233565049040267    0.8743316818378786    0.3754922853305131 Sc
   0.3749927484134302    0.1249995367130131    0.8749984477476879 Sc
   0.3748926027213982    0.3745998352694779    0.6222207748765450 Sc
   0.1272122623499538    0.1252855365822867    0.6268244956868482 Sc
   0.1181328992024562    0.3746788462686204    0.8782886925609646 Sc
   0.3749015895691110    0.6250909547170318    0.3751804811826611 Sc
   0.3768949838049060    0.8761864337310805    0.1248115376108150 Sc
   0.1230557824166397    0.6313282384918645    0.1251544567338705 Sc
   0.6254902510088681    0.8747044846057642    0.8754166343022152 Sc
   0.8764606128402844    0.1256908098894224    0.3754816780441656 Sc
   0.8770444261150965    0.3738199513015111    0.1274176320313496 Sc
   0.6247960898444189    0.1249220570922928    0.1262441184390233 Sc
   0.6214722766428289    0.3773773254717002    0.3738986346751694 Sc
   0.8742952500813336    0.6256075892559686    0.8748094917539214 Sc
   0.8727713138219176    0.8747181879611087    0.6225809845282426 Sc
   0.6204576664122180    0.6290771390709234    0.6243725207490707 Sc
   0.3856735987652616    0.1176704961093876    0.1134342061948633 Se
   0.6149940958159872    0.3848251188462243    0.6217516441782195 Se
   0.6170734143129505    0.1174806759367775    0.8831548931965235 Se
   0.3807567869656426    0.3837959590135526    0.3844400989994576 Se
   0.3680345812561612    0.1344497412138898    0.6332910724877094 Se
   0.1309373954733316    0.8740088923626358    0.1339966580665979 Se
   0.1353186069015460    0.1397314129445570    0.8692297423720734 Se
   0.3671463384455386    0.8672099512620436    0.3671599776409848 Se
   0.3808136373092755    0.6178625708582465    0.6188607046113451 Se
   0.6163199301993137    0.8832559266171156    0.1165656991609266 Se
   0.6190998697683313    0.6147114890629976    0.3892800635515766 Se
   0.3845698528185786    0.8830514146684832    0.8842790017175242 Se
   0.3684177975437729    0.6329355897560791    0.1285204832689301 Se
   0.1387697703547488    0.3682401337624175    0.6339515691278312 Se
   0.1316363454031712    0.6378240935297542    0.3670535389869698 Se
   0.3631099252104742    0.3657022257841301    0.8689677039272441 Se
   0.8813788685444529    0.1140721876801593    0.6131205635482007 Se
   0.1169058180520810    0.3843167125191379    0.1194496169679749 Se
   0.1146650365605889    0.1152495099313038    0.3822339675689256 Se
   0.8836617861005635    0.3834882017223762    0.8843305056637665 Se
   0.8647516023064159    0.1336455454849738    0.1379947380558446 Se
   0.6320182781664960    0.8655121460104136    0.6340136382969961 Se
   0.6309189046446847    0.1350599306575584    0.3676108830816140 Se
   0.8653539517090584    0.8687684023064113    0.8656177887767823 Se
   0.8817676146683900    0.6180857798327254    0.1177014870286628 Se
   0.1152702839362488    0.8845910687133983    0.6146122830519071 Se
   0.1191422128328080    0.6169701421899167    0.8802425430079310 Se
   0.8818430250905392    0.8858001472189065    0.3821541475492314 Se
   0.8677970175029730    0.6332625387152653    0.6346086673860428 Se
   0.6289571140605712    0.3663235741401884    0.1304168982234390 Se
   0.6289986901498024    0.6393052118527196    0.8675107970154093 Se
   0.8664728043908222    0.3676954190687955    0.3650818463911089 Se
