Mg7 Sc16 Se32
1.0
  11.1003847944368736    0.0000000000000000    0.0000000000000000
   0.0000000000000000   11.1003847944368736    0.0000000000000000
  -0.0000000000000000   -0.0000000000000000   11.1003847944368736
Mg Sc Se
7 16 32
direct
   0.5008874033608857    0.0015770394067979    0.5018454417047679 Mg
   0.2431652068927148    0.7498715031494064    0.7578532134895988 Mg
   0.4964702001417210    0.4981050157945486    0.9855320298532657 Mg
   0.7457815846719738    0.2484432882801567    0.7498079820939285 Mg
   0.9969872955466978    0.0160873473486977    0.0045429444972948 Mg
   0.7414856128481396    0.7456205531715590    0.2502842261641659 Mg
   0.0008854469783633    0.5004461251986632    0.4986188579132038 Mg
   0.1368165468723560    0.8896006120428909    0.3624477623560818 Sc
   0.3748588339631942    0.1270155873735844    0.8733877728113651 Sc
   0.3759020936096825    0.3760165234298782    0.6241579093755312 Sc
   0.1245585902460418    0.1261804122255930    0.6227465369682830 Sc
   0.1244262063180135    0.3737971345674231    0.8734968304106434 Sc
   0.3721927283658381    0.6229380147138973    0.3833083959235781 Sc
   0.3757378691181641    0.8752721945512724    0.1251714839620877 Sc
   0.1320960053965149    0.6225116849427295    0.1105812668814610 Sc
   0.6280192704379421    0.8670339567456727    0.8718807549565750 Sc
   0.8805383784419364    0.1141212628263239    0.3701590207655259 Sc
   0.8735971716404736    0.3747487241707310    0.1244356648944279 Sc
   0.6192495928765910    0.1348937676291538    0.1312886424831522 Sc
   0.6076943848507083    0.3901116332603027    0.3776433174555903 Sc
   0.8908379482881852    0.6234201094118276    0.8725234655042529 Sc
   0.8605838807780840    0.8835465805543280    0.6109038080993975 Sc
   0.6159782865547726    0.6370617305583610    0.6105537138463247 Sc
   0.3799626187143202    0.0950731192695231    0.1169344671349455 Se
   0.6130999848263142    0.3771561864762947    0.6150485016594481 Se
   0.6290198658903431    0.1174332125975421    0.8898724428663980 Se
   0.3836102794124685    0.3844698943453111    0.3935161558032913 Se
   0.3570132282679647    0.1313272624090973    0.6351991910265629 Se
   0.1411191038365271    0.8584782756192352    0.1247475316765651 Se
   0.1202564299014789    0.1211584880144860    0.8626567027934701 Se
   0.3632016095440615    0.8767334649355014    0.3762273580683854 Se
   0.3995353596167132    0.6081089381836088    0.6182633279824212 Se
   0.6365295053864756    0.8734000768840607    0.1081459206089835 Se
   0.6176148990164551    0.6155042231016000    0.3865882900100367 Se
   0.3870157378448507    0.8987615118753061    0.8975539464423180 Se
   0.3863800213501040    0.6310481453070780    0.1450035480551209 Se
   0.1315999669697108    0.3681538623554719    0.6370966974160730 Se
   0.1361372420131087    0.6402550796488632    0.3793529233035858 Se
   0.3742238619901482    0.3707844013174886    0.8587459121693823 Se
   0.8929789487226250    0.1294992708449191    0.6072039691357932 Se
   0.1146164686616111    0.3951501570583308    0.1249516654534802 Se
   0.0939217667930035    0.1131897663885205    0.3859349087277716 Se
   0.8697338222635761    0.3858898609335048    0.8840123651255545 Se
   0.8570470458108985    0.1201583230122397    0.1311632580598608 Se
   0.6247016537780192    0.8600712557922865    0.6354321454717566 Se
   0.6317987471006504    0.1162317705964160    0.3669768784336109 Se
   0.8670636585122892    0.8682588216993005    0.8476719986710023 Se
   0.8816767511746024    0.5971502122135729    0.1219660696194644 Se
   0.1181780060623507    0.8865037369520781    0.6179526701288420 Se
   0.1092699856878813    0.6155472223069086    0.8745435118840570 Se
   0.8730585694394357    0.8813937886148765    0.3910172432259572 Se
   0.8676888548025047    0.6311896050718983    0.6312645206943488 Se
   0.6360222998506296    0.3798574604445744    0.1366886452414690 Se
   0.6357794589930822    0.6182579923192230    0.8766532027888392 Se
   0.8653490909722702    0.3693416868685191    0.3731751178253935 Se
