Mg7 Sc16 Se32
1.0
  11.1003847944368736    0.0000000000000000    0.0000000000000000
   0.0000000000000000   11.1003847944368736    0.0000000000000000
  -0.0000000000000000   -0.0000000000000000   11.1003847944368736
Mg Sc Se
7 16 32
direct
   0.5006843381016427    0.9982921841530588    0.5007064462938233 Mg
   0.2499925024177135    0.7499650835133304    0.7500661135193668 Mg
   0.4985696631442633    0.4995068074398960    0.9969202771256963 Mg
   0.7515705920700445    0.2636777832896757    0.7524911816024455 Mg
   0.0031700118304154    0.0022450681410951    0.9986069682781489 Mg
   0.7490520469722363    0.7502031966138420    0.2499614236211132 Mg
   0.9864040209563342    0.4998833432485166    0.4993904437766432 Mg
   0.1243782791151186    0.8711023119877674    0.3797442659310487 Sc
   0.3780506380617131    0.1266558617355749    0.8750544137480192 Sc
   0.3762357540971804    0.3679004283372392    0.6292501269238306 Sc
   0.1299552722231195    0.1257513850522055    0.6229768394543942 Sc
   0.1187125356524832    0.3723467589779106    0.8721605291037466 Sc
   0.3709354157539489    0.6209052215845915    0.3827863259042233 Sc
   0.3774328125989454    0.8688008376212052    0.1312234576610528 Sc
   0.1257947614556237    0.6249737051563328    0.1241308326028107 Sc
   0.6248089740710742    0.8745542064420971    0.8745409086795710 Sc
   0.8744709929323751    0.1252444192014869    0.3745191695308989 Sc
   0.8715954898436657    0.3755233571731987    0.1261602677162227 Sc
   0.6317479411468188    0.1222616172224651    0.1247065886547568 Sc
   0.6250172504423664    0.3741991383034188    0.3751434613607400 Sc
   0.8748387105438300    0.6273688626592906    0.8723130605473460 Sc
   0.8761544815094252    0.8735506010065105    0.6217485923985436 Sc
   0.6243936578120026    0.6289815029060123    0.6150575686090241 Sc
   0.3818340007419144    0.1135241922595449    0.1171291412092941 Se
   0.6151160169295624    0.3793142613473340    0.6160645182296608 Se
   0.6098189049156358    0.1192081829510640    0.8833509869798577 Se
   0.3875254598330363    0.3826438024291857    0.3778642708443022 Se
   0.3726020918059802    0.1304967200168851    0.6308533515996533 Se
   0.1350499813256148    0.8678545565287462    0.1330289711302052 Se
   0.1402836140742852    0.1315478408132489    0.8593144350408247 Se
   0.3677505196473387    0.8643040597254027    0.3650886562081785 Se
   0.3842836589874862    0.6153414721755720    0.6205408886615874 Se
   0.6180281741290390    0.8800793833079611    0.1190473363519147 Se
   0.6064622317392420    0.6118535726506436    0.3791622572168138 Se
   0.3844320542033621    0.8825692860466312    0.8826520728616993 Se
   0.3734210517092108    0.6418411842326963    0.1284626169657630 Se
   0.1322664994405464    0.3650838833474873    0.6326066244821744 Se
   0.1266271987928650    0.6302549755192056    0.3739266652701686 Se
   0.3684046426070394    0.3807374209453543    0.8674141000633615 Se
   0.8823208137541726    0.1169653934753626    0.6167616899105824 Se
   0.1179966490112233    0.3781845961293770    0.1189177643561991 Se
   0.1174611343702126    0.1117421347980211    0.3843171139441897 Se
   0.8819090696773250    0.3718506463418295    0.8776739801117144 Se
   0.8632951428530387    0.1309189085754327    0.1297838358380652 Se
   0.6346630856354698    0.8610265239672653    0.6308059774462420 Se
   0.6318038381530815    0.1380577350100939    0.3603529075622141 Se
   0.8641359873583678    0.8744551196683897    0.8659584758517604 Se
   0.8795112106634799    0.6146582813961389    0.1229091749308356 Se
   0.1154265509601363    0.8903469338286024    0.6237921258824862 Se
   0.1193774702454388    0.6204840190874824    0.8797869364827244 Se
   0.8822686472262753    0.8844776251620349    0.3764556178116061 Se
   0.8672172150935941    0.6304435941674964    0.6319618056740942 Se
   0.6330355747025376    0.3676293884559804    0.1314302002425647 Se
   0.6331294778132898    0.6359418458532188    0.8663736895308543 Se
   0.8691670064548599    0.3650946045411124    0.3702340061036247 Se
