Mg7 Sc16 Se32
1.0
  11.1003847944368736    0.0000000000000000    0.0000000000000000
   0.0000000000000000   11.1003847944368736    0.0000000000000000
  -0.0000000000000000   -0.0000000000000000   11.1003847944368736
Mg Sc Se
7 16 32
direct
   0.4996952489488082    0.0010455201060244    0.4973336468542520 Mg
   0.2494556232027632    0.7495547935080575    0.7489964679699249 Mg
   0.5001028136264467    0.5023958636262948    0.0008615100261376 Mg
   0.7505374985373107    0.2480602358462810    0.7472260936631060 Mg
   0.0007243805484624    0.9998958708312730    0.0015921371387628 Mg
   0.7509205921801385    0.7483845087279621    0.2504588630831668 Mg
   0.1151466819946818    0.4024639485499103    0.3859217627281456 Mg
   0.1255926092647206    0.8746431865762905    0.3754937587968144 Sc
   0.3736484074238198    0.1282547436922411    0.8769762379338600 Sc
   0.3710029561227439    0.3748507202976794    0.6261846554428405 Sc
   0.1245526013198613    0.1291581602311922    0.6261128918776311 Sc
   0.1268424233629650    0.3759892594527706    0.8773657968056422 Sc
   0.3751993098129666    0.6250606439441156    0.3749511058068649 Sc
   0.3755174174758496    0.8750419409339483    0.1239124289743503 Sc
   0.1241714563081107    0.6261311120630125    0.1237868593389562 Sc
   0.6251145163213099    0.8763045191813552    0.8753189571219144 Sc
   0.8727944707213220    0.1226803449663232    0.3775003966606618 Sc
   0.8740929941612254    0.3762673843286264    0.1211392978174431 Sc
   0.6251216678822328    0.1255698376416073    0.1261613414690265 Sc
   0.6255618430007157    0.3744681126738615    0.3750726289311941 Sc
   0.8773069144382648    0.6226783339838636    0.8760367721548735 Sc
   0.8748332393685891    0.8735385169792294    0.6222917763155912 Sc
   0.6248539569116729    0.6252416317628671    0.6244271365457116 Sc
   0.3820428631740616    0.1155359296017687    0.1177303175891201 Se
   0.6147625383989667    0.3821766176887331    0.6147569059521850 Se
   0.6172342112328025    0.1171197072369229    0.8820379656477070 Se
   0.3795196757392217    0.3844551884768518    0.3807612462016582 Se
   0.3644114074837484    0.1327763591415571    0.6346989528963543 Se
   0.1327209197817257    0.8672029146623885    0.1316651384920924 Se
   0.1314708261965996    0.1349194479589206    0.8670726616936284 Se
   0.3679186337486693    0.8697442748434145    0.3650986072621252 Se
   0.3840950297194953    0.6181043412225747    0.6171989990892034 Se
   0.6198067716921010    0.8813348683979568    0.1164716992319745 Se
   0.6201942815078568    0.6141437742319144    0.3824320309709824 Se
   0.3823925450093026    0.8813564513065797    0.8835978618825122 Se
   0.3706773947815050    0.6309801249132544    0.1347361203988271 Se
   0.1315560339703685    0.3667787289988911    0.6308676072109451 Se
   0.1345841350997194    0.6338531342503229    0.3699432957275139 Se
   0.3681402909349842    0.3677404542894714    0.8664297337123621 Se
   0.8825609571225504    0.1189637549294049    0.6156830804719334 Se
   0.1145575339168763    0.3825782915694503    0.1170310896126717 Se
   0.1176020867177130    0.1178460093311214    0.3826296309261735 Se
   0.8835871363000288    0.3863922010510251    0.8850090154678394 Se
   0.8707075649173621    0.1310392611116619    0.1331429264996675 Se
   0.6326396611202473    0.8665427366188939    0.6350362338624377 Se
   0.6316532958078005    0.1293631637332380    0.3661320922459676 Se
   0.8658689820678052    0.8672553295644621    0.8679991137813421 Se
   0.8866386252364963    0.6181597781849698    0.1190401179933114 Se
   0.1167795244911411    0.8832906030020156    0.6189207308891147 Se
   0.1174110255442967    0.6173129789984426    0.8823429687435503 Se
   0.8815687082547746    0.8840541243519212    0.3834628453382305 Se
   0.8657960499325830    0.6330823296424183    0.6333789892652715 Se
   0.6332434093440085    0.3673797306549840    0.1325736246059600 Se
   0.6333117814029948    0.6330820538174550    0.8671093954755587 Se
   0.8668628130170059    0.3672816230011581    0.3659206172721094 Se
