Mg7 Sc16 Se32
1.0
  11.1003847944368736    0.0000000000000000    0.0000000000000000
   0.0000000000000000   11.1003847944368736    0.0000000000000000
  -0.0000000000000000   -0.0000000000000000   11.1003847944368736
Mg Sc Se
7 16 32
direct
   0.5122511838948832    0.0056152749703187    0.4878058782889167 Mg
   0.2509870195103877    0.7473286204761744    0.7464054585966390 Mg
   0.5018622429188773    0.5070083970910648    0.9973491687519151 Mg
   0.7508277175499278    0.2648392438689742    0.7541071789336972 Mg
   0.9896881075322077    0.9941491064012974    0.9955305540817614 Mg
   0.7394055807315616    0.7541706846650789    0.2621604670915165 Mg
   0.2414145690689421    0.2420936836971515    0.2450229220106837 Mg
   0.1288688298265917    0.8995263385610648    0.3795327179077809 Sc
   0.3893724502562628    0.1109885498795212    0.8779576743922280 Sc
   0.3783974561355200    0.3661491722039291    0.6207017701439037 Sc
   0.1161097216461711    0.1226106847015484    0.6449588752294975 Sc
   0.1288589902999727    0.3689330525138110    0.8766239970736630 Sc
   0.3761228655288650    0.6175121531434286    0.3674983826358915 Sc
   0.3770611885487981    0.8758849144513696    0.1280022476029164 Sc
   0.1149915643979447    0.6192815403378584    0.1190495536785429 Sc
   0.6151069336501286    0.8768144875895694    0.8903093979550368 Sc
   0.8713393524874690    0.1038490828272460    0.3768034629068731 Sc
   0.8801447685646933    0.3641571292902541    0.1325862034492784 Sc
   0.6294848907745741    0.1301332166956040    0.1364239489659278 Sc
   0.6315447381636021    0.3786517929495878    0.3590827269250030 Sc
   0.8910752116853763    0.6213684621664259    0.8756636166990701 Sc
   0.8703372527045734    0.8844618191270583    0.6208333755214250 Sc
   0.6224633712785865    0.6248773106428822    0.6223930411114834 Sc
   0.3852390452029335    0.1206878432389015    0.0994178235463344 Se
   0.6117239485043175    0.3846869621247683    0.6152057476072165 Se
   0.6059881508184292    0.1000954833320545    0.8760677815057596 Se
   0.3944428454602915    0.3899612370790992    0.3877591908588431 Se
   0.3809585839856435    0.1347044954270341    0.6441164881537739 Se
   0.1343459627764935    0.8651182496868304    0.1280857040395650 Se
   0.1325173895303822    0.1314630785862953    0.8679723174474211 Se
   0.3622798429480263    0.8773301501397481    0.3539264915345285 Se
   0.3873134078648385    0.6239498881216149    0.6113247763428267 Se
   0.6147295941815346    0.8816838948249544    0.1145971732453731 Se
   0.6153716537708132    0.6144824371472011    0.3818668630277419 Se
   0.3984667625873042    0.8841586358094116    0.8666311287932100 Se
   0.3576851858998784    0.6530026780324765    0.1342023554314470 Se
   0.1316681413224667    0.3671263147001871    0.6336744417334742 Se
   0.1511132305728183    0.6300561397773392    0.3718381616196366 Se
   0.3813929059722085    0.3624526111470388    0.8757080352517429 Se
   0.8825209322517533    0.1197598504459812    0.6160339285074696 Se
   0.1179251524843429    0.3772514491122512    0.1301968196966347 Se
   0.1128292331155753    0.1120673679890733    0.3816214181179329 Se
   0.8911787756863645    0.3708591703388334    0.8778898942007175 Se
   0.8668430140098808    0.1330992345292990    0.1332252674659059 Se
   0.6265679293302640    0.8577938982403008    0.6541402921272872 Se
   0.6450919976995720    0.1386411552030519    0.3633570942508805 Se
   0.8608137534160900    0.8694025680155333    0.8638958598660533 Se
   0.8795620929046434    0.6079594196192436    0.1133444595967161 Se
   0.1350454580794869    0.8702482441392186    0.6121284865074702 Se
   0.1096067050084140    0.6079396101503414    0.8727085825660926 Se
   0.8961327650953179    0.8867211824883369    0.3844695691679954 Se
   0.8663964806002356    0.6219121285131258    0.6567789955373279 Se
   0.6326872956469149    0.3664335291810539    0.1329963240119061 Se
   0.6307834507159773    0.6327055585601588    0.8683799017232607 Se
   0.8608957210660449    0.3499517163545244    0.3574779056439514 Se
