Mg7 Sc16 Se32
1.0
  11.1003847944368736    0.0000000000000000    0.0000000000000000
   0.0000000000000000   11.1003847944368736    0.0000000000000000
  -0.0000000000000000   -0.0000000000000000   11.1003847944368736
Mg Sc Se
7 16 32
direct
   0.3556875534644300    0.1486255053983301    0.3665683239879564 Mg
   0.2632973556750565    0.7433785879745599    0.7564181264585405 Mg
   0.4997374915548083    0.4986688067529901    0.9962343085841048 Mg
   0.7438871388775715    0.2454056660365110    0.7493845363750411 Mg
   0.0048294970634849    0.9992130027248548    0.0054320032969601 Mg
   0.7625435148944646    0.7434460186250752    0.2463580640261740 Mg
   0.0011384287039538    0.5051287493460886    0.5013171879773397 Mg
   0.1263229244545424    0.8905892144063804    0.3706946131476518 Sc
   0.3699590526349223    0.1162730340694553    0.8799919894407309 Sc
   0.3821984656477461    0.3798550698923286    0.6340656978727739 Sc
   0.1240461843984561    0.1213305032949223    0.6211101480426162 Sc
   0.1244127219711289    0.3745087773528895    0.8818568095830530 Sc
   0.3612774292724575    0.6325073134186705    0.3772305907209982 Sc
   0.3742356194978599    0.8743106652756266    0.1255383617431791 Sc
   0.1262632734811526    0.6251849847477617    0.1231624599636630 Sc
   0.6313980544411160    0.8703393418992199    0.8673346460657980 Sc
   0.8713673131558554    0.1191650682794299    0.3748875018081702 Sc
   0.8661871264922760    0.3796199693931899    0.1184570034219519 Sc
   0.6116301847022928    0.1285539425712072    0.1210338000888864 Sc
   0.6242942340978286    0.3698811104576653    0.3744611476539519 Sc
   0.8815922609193921    0.6324935711672001    0.8731686375481881 Sc
   0.8729220455188245    0.8735099802628082    0.6253734416607707 Sc
   0.6361083236847672    0.6274632883572836    0.6291232929273112 Sc
   0.3821129705524727    0.1194781649968501    0.1098138301809654 Se
   0.6119640467069880    0.3933635574040870    0.6151459584030630 Se
   0.6101711789132692    0.1242272100661382    0.8776950364113087 Se
   0.3893153898831778    0.3859529727592392    0.3836721214001330 Se
   0.3669276322002415    0.1300829745124605    0.6326631046285051 Se
   0.1315082667874881    0.8663016784268418    0.1352652661680388 Se
   0.1399748419424747    0.1439222582983219    0.8587426284012926 Se
   0.3671193740062522    0.8671245819332754    0.3672017316393783 Se
   0.3849907239166083    0.6163034251548257    0.6107849389707549 Se
   0.6160500717581799    0.8837138368861501    0.1172852672085283 Se
   0.6162583247129544    0.6174993210383243    0.3833208508501357 Se
   0.3844334238046927    0.8816446782280093    0.8858416562142696 Se
   0.3586130372514724    0.6321016215408786    0.1277819825786080 Se
   0.1372127980919727    0.3714851651833868    0.6235060781721309 Se
   0.1331610136906808    0.6335154182154712    0.3665120678796132 Se
   0.3729551105273646    0.3651271015296226    0.8691972406691504 Se
   0.8745250244963153    0.1222047878224300    0.6156039511308671 Se
   0.1100541780879023    0.3845256448863579    0.1200885150366711 Se
   0.1089232751188075    0.1290738729594168    0.3906335941734374 Se
   0.8798162603960274    0.3940939744143006    0.8855699625278798 Se
   0.8717977605978743    0.1341675140908425    0.1412805262724494 Se
   0.6319593094944346    0.8736158559449434    0.6222677621003916 Se
   0.6349893776395379    0.1385613457853602    0.3698337118323279 Se
   0.8782656608293189    0.8689234714296951    0.8558512757529746 Se
   0.8839896788959509    0.6169309748341123    0.1174882944084382 Se
   0.1142414598851657    0.8764374804081045    0.6274765631617192 Se
   0.1121530065048820    0.6078325546576254    0.8793041882312915 Se
   0.8902806915798125    0.8741416521630292    0.3918780238380951 Se
   0.8665981855660205    0.6326942200187190    0.6331255982526894 Se
   0.6328313888264385    0.3648014466116279    0.1465725850328138 Se
   0.6460987869294174    0.6383282037666929    0.8656913996420902 Se
   0.8590107237851363    0.3816476216428396    0.3719511240068594 Se
