Mg7 Sc16 Se32
1.0
  11.1003847944368736    0.0000000000000000    0.0000000000000000
   0.0000000000000000   11.1003847944368736    0.0000000000000000
  -0.0000000000000000   -0.0000000000000000   11.1003847944368736
Mg Sc Se
7 16 32
direct
   0.4973394937451302    0.0005996623785305    0.5000884620629256 Mg
   0.2498381024269813    0.7503571033830864    0.7497448031805067 Mg
   0.4999625509509605    0.4999915499373304    0.9999957425122514 Mg
   0.7509529390002382    0.2501081707266749    0.7493528042479494 Mg
   0.0031363636624586    0.9997006271255919    0.0007475213608573 Mg
   0.7484388870716566    0.7509391681470510    0.2473694137813968 Mg
   0.9994114285989895    0.4995068240691588    0.5000203392007793 Mg
   0.1247236877930119    0.8741607436465206    0.3753282229445200 Sc
   0.3748485701487682    0.1251893525950708    0.8746760681731951 Sc
   0.3772055490600929    0.3765238517972846    0.6246408967799990 Sc
   0.1249543721453744    0.1261182562870709    0.6255621919537303 Sc
   0.1249842513754064    0.3761696491616489    0.8773960846363777 Sc
   0.3762916725479789    0.6263800158422950    0.3742331413153775 Sc
   0.3728007247503821    0.8739999621823915    0.1217791398753653 Sc
   0.1274359235707470    0.6249471504817676    0.1250504841933854 Sc
   0.6228053911912576    0.8785884879100087    0.8748162254179858 Sc
   0.8776941750543257    0.1260255547239840    0.3737100806529884 Sc
   0.8744946689471845    0.3770574406129127    0.1283056406731251 Sc
   0.6229426427796796    0.1232562508821623    0.1259635924431441 Sc
   0.6250882044054005    0.3722934319680419    0.3758181874466900 Sc
   0.8742232147235048    0.6250458824701532    0.8747092396560566 Sc
   0.8755290876484528    0.8719588969982743    0.6263174131452537 Sc
   0.6250399861543855    0.6271245649559801    0.6226279733299660 Sc
   0.3841890730752844    0.1203480928556028    0.1177713596585850 Se
   0.6168928587700542    0.3829759020426275    0.6162813171723425 Se
   0.6161667621347683    0.1158356547673700    0.8851591847228119 Se
   0.3832694929751873    0.3858644212844994    0.3854351130165317 Se
   0.3675141549701676    0.1339682171857523    0.6326956930267573 Se
   0.1306559272958874    0.8678240668625046    0.1330116119904658 Se
   0.1329208002222819    0.1311479241065872    0.8666392755583744 Se
   0.3667509968180310    0.8668730595797018    0.3671076548069668 Se
   0.3826940711988956    0.6178599247983806    0.6148201871397884 Se
   0.6171066504137570    0.8808725044221980    0.1152735093219010 Se
   0.6183114751810275    0.6172380378986655    0.3832362310531449 Se
   0.3831424412355189    0.8824741133311392    0.8827724406256412 Se
   0.3666466909065756    0.6289724031639309    0.1341920287945098 Se
   0.1345764856805097    0.3670498035579382    0.6344225504002317 Se
   0.1323383777691857    0.6352266494478701    0.3684991457361312 Se
   0.3677260482974386    0.3669764260513564    0.8665069834007441 Se
   0.8848488313077120    0.1171519684402011    0.6162274271728768 Se
   0.1167192545278285    0.3832175448295782    0.1165503604610373 Se
   0.1168307976779439    0.1181257609755089    0.3822083188206330 Se
   0.8855010093223754    0.3855268846881499    0.8829342293224193 Se
   0.8655803189158925    0.1311025827018444    0.1312811703865005 Se
   0.6340334604136837    0.8683413938337190    0.6369904274754277 Se
   0.6333256068704705    0.1334658124779880    0.3667147729624221 Se
   0.8709530734010035    0.8670669659401701    0.8652783343096850 Se
   0.8823289483307809    0.6186664712923789    0.1207794851511971 Se
   0.1152293907323124    0.8827714647935100    0.6183580724663748 Se
   0.1180725295971166    0.6190623799021731    0.8820294688025245 Se
   0.8870462569140097    0.8826621696954002    0.3834748891845580 Se
   0.8675454739574169    0.6316306988900448    0.6326333919987379 Se
   0.6332218330257000    0.3627872695149817    0.1334946917404369 Se
   0.6328125667735019    0.6326702823469230    0.8674645623570219 Se
   0.8638135425776512    0.3654233926602291    0.3668387411593071 Se
