Mg7 Sc16 Se32
1.0
  11.1003847944368736    0.0000000000000000    0.0000000000000000
   0.0000000000000000   11.1003847944368736    0.0000000000000000
  -0.0000000000000000   -0.0000000000000000   11.1003847944368736
Mg Sc Se
7 16 32
direct
   0.5004655052371919    0.9991644772215442    0.4965115412817070 Mg
   0.2500922093447313    0.7498684037283729    0.7500121527948547 Mg
   0.2087794301914327    0.2705432888826705    0.1986575046963562 Mg
   0.7449739974505245    0.2513025245913883    0.7463764244917680 Mg
   0.9978701055003990    0.0011197642258994    0.9984437066542213 Mg
   0.7491778725027063    0.7519249985966929    0.2571905740532773 Mg
   0.9972697142777591    0.4984945885422876    0.5036753049728466 Mg
   0.1262916820870312    0.8754441906463328    0.3739968988472488 Sc
   0.3771474971009326    0.1219130041671352    0.8783513849306260 Sc
   0.3778291630865232    0.3725862262534685    0.6305704622684359 Sc
   0.1244838525101162    0.1193948828675833    0.6285554555121371 Sc
   0.1251721975879864    0.3746094176719816    0.8770255597722413 Sc
   0.3745055387999603    0.6193850420663972    0.3700019585499964 Sc
   0.3750324989764086    0.8739631326486649    0.1252484896258846 Sc
   0.1259780744632466    0.6222849140575438    0.1266131377455765 Sc
   0.6251823366507127    0.8751061838032101    0.8751420152184622 Sc
   0.8746715383527175    0.1247248996819165    0.3744127532363264 Sc
   0.8745978765135124    0.3773188221630265    0.1258397740024242 Sc
   0.6269300639610985    0.1257226550430198    0.1252990288134724 Sc
   0.6257846835217924    0.3758525326353737    0.3753391329729381 Sc
   0.8769661996423690    0.6223360462284304    0.8734109930380978 Sc
   0.8743262998547917    0.8751123370513750    0.6271669058917245 Sc
   0.6242884721614671    0.6233599806156850    0.6249043257371608 Sc
   0.3830585206824332    0.1099113151120598    0.1193118673303968 Se
   0.6148994949100310    0.3820428740598431    0.6211493374271344 Se
   0.6118673996450338    0.1208424784087957    0.8822594902548315 Se
   0.3814114090779729    0.3827912409373918    0.3800267957582862 Se
   0.3653523312684609    0.1298954315592332    0.6362348762918044 Se
   0.1368143868712133    0.8611897579059904    0.1323469118551107 Se
   0.1327251304990940    0.1327141047697888    0.8658457172297386 Se
   0.3668404375962985    0.8670854858057171    0.3670716838625685 Se
   0.3794448571246656    0.6160361970678591    0.6175452321909631 Se
   0.6149623300425791    0.8840960797965970    0.1179900681099300 Se
   0.6174395249572806    0.6172157923872615    0.3823528868575585 Se
   0.3889769593498552    0.8820563994224007    0.8806100753580991 Se
   0.3641167677366799    0.6310929935353389    0.1362750639413001 Se
   0.1310627420144617    0.3665173853537436    0.6288850175658001 Se
   0.1308660445237386    0.6291351102997832    0.3714044128832074 Se
   0.3665993366867448    0.3688524430469743    0.8646076267057606 Se
   0.8785836499431182    0.1116499450198020    0.6191239979621678 Se
   0.1172503536589659    0.3853914375183436    0.1185633226995224 Se
   0.1183188379034291    0.1226431161949905    0.3791720756157727 Se
   0.8830168910337226    0.3828344372529985    0.8827505675129059 Se
   0.8644967998928033    0.1263591543743597    0.1322722854220553 Se
   0.6321327677039893    0.8660805378486246    0.6366355754188272 Se
   0.6324999984270122    0.1356962413629506    0.3671246113234450 Se
   0.8641117369513461    0.8668170200565988    0.8655439345166608 Se
   0.8793920779537653    0.6160192402608285    0.1161663791196972 Se
   0.1175393926668012    0.8831164538418107    0.6195516876743635 Se
   0.1134361481795795    0.6232221237147522    0.8822051837583769 Se
   0.8828206198516871    0.8829218829824985    0.3828338995346900 Se
   0.8732635571613312    0.6299780966029040    0.6323346944316618 Se
   0.6343523978844430    0.3685198327296937    0.1317657202171986 Se
   0.6328276276085022    0.6332262452965143    0.8666130763625157 Se
   0.8656744986251044    0.3676919211577267    0.3671696162094010 Se
