Mg7 Sc16 Se32
1.0
  11.1003847944368736    0.0000000000000000    0.0000000000000000
   0.0000000000000000   11.1003847944368736    0.0000000000000000
  -0.0000000000000000   -0.0000000000000000   11.1003847944368736
Mg Sc Se
7 16 32
direct
   0.2945582594775723    0.2130024168099832    0.2891937290868105 Mg
   0.2432206178413318    0.7398386712468826    0.7621318834118254 Mg
   0.4932458802304979    0.4965723346513999    0.9979599669243686 Mg
   0.7526888353827578    0.2395549777219346    0.7497450195468852 Mg
   0.9935451960879818    0.0058053453870667    0.9986315147137272 Mg
   0.7517890050409838    0.7504703615139967    0.2516086115264898 Mg
   0.9907042003361617    0.5036014762241438    0.4997702288597444 Mg
   0.1232073809341732    0.8728322706898114    0.3745058138083615 Sc
   0.3694485540148334    0.1190883108659109    0.8792282494429459 Sc
   0.3689617904510823    0.3704990260616949    0.6343221978937873 Sc
   0.1387190279465735    0.1220295552056469    0.6295142969405463 Sc
   0.1130623034256430    0.3797020979843819    0.8745930553035808 Sc
   0.3621673272374678    0.6181589844401107    0.3781663365254621 Sc
   0.3760036113688837    0.8750577130781665    0.1263776981474480 Sc
   0.1140347494588642    0.6260055846635534    0.1242566691928518 Sc
   0.6270800240399483    0.8610585100844405    0.8735080817756665 Sc
   0.8716881912004398    0.1230197339709584    0.3834827952057934 Sc
   0.8675699272582372    0.3650494126407293    0.1214289465686843 Sc
   0.6242472924503011    0.1243396068378770    0.1250090831388449 Sc
   0.6238376228019666    0.3740259057377281    0.3728650912265400 Sc
   0.8754146989582161    0.6306250351227797    0.8810031247433635 Sc
   0.8861351426510039    0.8688506853665352    0.6206369138295548 Sc
   0.6350210202486136    0.6336860516821585    0.6153709445706043 Sc
   0.3871935261974656    0.1215528403185344    0.1156854986616584 Se
   0.6317773011646206    0.3824828434496525    0.6145573399611483 Se
   0.6127012072120521    0.1260125383671611    0.8743682288189852 Se
   0.3908903530604126    0.3917077053211965    0.3801375433068223 Se
   0.3694614750157922    0.1372378199113339    0.6311069079071605 Se
   0.1413835660326720    0.8813547765246534    0.1316910649441413 Se
   0.1367355567059616    0.1390960326034461    0.8540099619460209 Se
   0.3668852957425168    0.8708598713726350    0.3711787864884382 Se
   0.3812413711621963    0.6230382255800160    0.6135402829978420 Se
   0.6145000357824517    0.8814789822042763    0.1080306629723438 Se
   0.6154178084258090    0.6134632043316067    0.3870225413501134 Se
   0.3794164299000599    0.8808448233871129    0.8756863161873744 Se
   0.3767932859229206    0.6438505254061688    0.1386624719062761 Se
   0.1285717505588816    0.3690409864832051    0.6469541255473198 Se
   0.1317834168942461    0.6373289911878484    0.3594256264868286 Se
   0.3668837446750965    0.3661722839617241    0.8670019679923548 Se
   0.8951153363188449    0.1121377629319926    0.6148290720184019 Se
   0.1223837795835657    0.3828885102059106    0.1258841668155702 Se
   0.1136741014476256    0.1218570378785172    0.3761564526197507 Se
   0.8866285538172147    0.3809689543281226    0.8827983785736079 Se
   0.8672702496590924    0.1324021161486719    0.1332158000992625 Se
   0.6446438589083123    0.8743319805950019    0.6256368844218099 Se
   0.6496110865020733    0.1295502535618545    0.3642390271044730 Se
   0.8776646024922288    0.8716598427334245    0.8798411415017326 Se
   0.8704124446695903    0.6262902774994026    0.1098661772535609 Se
   0.1117230743570992    0.8896136795948620    0.6077894224598650 Se
   0.1220920710023348    0.6218035779930418    0.8837495915238536 Se
   0.8937731666262009    0.8857929170467552    0.3947501955396862 Se
   0.8748263631092188    0.6395145418890112    0.6352384034990552 Se
   0.6275971967785631    0.3725734468013278    0.1258155429690481 Se
   0.6292251737074193    0.6344736917918737    0.8639514026495029 Se
   0.8618534427816429    0.3703260052831702    0.3615781503016760 Se
