Mg7 Sc16 Se32
1.0
  11.1003847944368736    0.0000000000000000    0.0000000000000000
   0.0000000000000000   11.1003847944368736    0.0000000000000000
  -0.0000000000000000   -0.0000000000000000   11.1003847944368736
Mg Sc Se
7 16 32
direct
   0.4875389162841906    0.9975624935617757    0.4850457023035187 Mg
   0.2466215622932020    0.7372465789737823    0.7422444989543558 Mg
   0.1899667276024022    0.2669128029047179    0.1829611168866402 Mg
   0.7514760448922246    0.2507779204122597    0.7494817271444029 Mg
   0.0165255445402000    0.9906475475334042    0.0006320793030844 Mg
   0.7506677262583800    0.7429125600165629    0.2511810575990354 Mg
   0.9960555413613843    0.5085510458359460    0.4836479353625463 Mg
   0.1229712497645882    0.8705967844252489    0.3648849021849954 Sc
   0.3760491802565205    0.1255594327666890    0.8712609547815612 Sc
   0.3770928314750641    0.3762000995706552    0.6299157261656082 Sc
   0.1254423176200671    0.1242509156606401    0.6248035848459360 Sc
   0.1310557427568529    0.3854851675331162    0.8661761779407061 Sc
   0.3796302996789703    0.6259186061154089    0.3683436103298523 Sc
   0.3729535324693060    0.8778461297157454    0.1268908115783205 Sc
   0.1387064043069779    0.6334662084061015    0.1269135025456311 Sc
   0.6378729508139839    0.8791848594409752    0.8850489856449828 Sc
   0.8712314585498068    0.1088844125785016    0.3816591237700891 Sc
   0.8741036630320255    0.3766770486284187    0.1239666432486648 Sc
   0.6271169899864713    0.1277936204845828    0.1265371706281582 Sc
   0.6261456506754834    0.3865295899973666    0.3864606082073782 Sc
   0.8836917417965969    0.6087499729435247    0.8805295565176603 Sc
   0.8736606849434171    0.8820779924148409    0.6220881747998603 Sc
   0.6266409107254334    0.6252488219745088    0.6396288937795220 Sc
   0.3751317268157888    0.1195448920789152    0.1330227799457477 Se
   0.6136247429210596    0.3826267163256669    0.6109179407494642 Se
   0.6074096667527025    0.1157684135235784    0.8822018171894296 Se
   0.3827805519277122    0.3806427850774835    0.3853235330703281 Se
   0.3637293812343087    0.1283443571673522    0.6323468694246106 Se
   0.1335241569021968    0.8664946585972378    0.1332205407511272 Se
   0.1325389970042909    0.1365142675393839    0.8656246638341740 Se
   0.3751187693598245    0.8661300437613204    0.3681336210398803 Se
   0.3759097773477751    0.6080579850936129    0.6043561802845734 Se
   0.6175770019706559    0.8857427802733727    0.1215817849918100 Se
   0.6191575929277526    0.6136635122730568    0.3646033694229411 Se
   0.3937406839203397    0.8879862196459237    0.8686092272741986 Se
   0.3747546109648656    0.6375671853833489    0.1424797683472403 Se
   0.1480638920428093    0.3779435944366715    0.6399320984215190 Se
   0.1300412705286111    0.6402991937025126    0.3661511074820211 Se
   0.3642761438861260    0.3732542080515657    0.8683974560490225 Se
   0.8816094698048650    0.1105017227192259    0.6066074851642718 Se
   0.1022975058953886    0.3792925953281079    0.1041629751396023 Se
   0.1164479921866652    0.1046395882317087    0.3762148896799815 Se
   0.8815510680129846    0.3754872264124536    0.8826525380820592 Se
   0.8618415998898430    0.1249520277070681    0.1374997792800663 Se
   0.6252058855299392    0.8519549724047407    0.6311577032013960 Se
   0.6207731214826001    0.1305281213976760    0.3702530109372048 Se
   0.8589530607323774    0.8705257452606382    0.8546994680485793 Se
   0.8703065932025859    0.6142918536252417    0.1082471299015749 Se
   0.1167375739364086    0.8822351925915966    0.6173217106708229 Se
   0.1173925573882979    0.6058667788977016    0.8782578027334678 Se
   0.8892517933094602    0.8834422048048457    0.3866251366038791 Se
   0.8690069258847317    0.6343247202763318    0.6313501078694784 Se
   0.6311174044785142    0.3702860219038710    0.1391456962066503 Se
   0.6325172790796857    0.6330950051827273    0.8673074471358132 Se
   0.8607927859693538    0.3615206980840640    0.3707773528364687 Se
