Mg7 Sc16 Se32
1.0
  11.1003847944368736    0.0000000000000000    0.0000000000000000
   0.0000000000000000   11.1003847944368736    0.0000000000000000
  -0.0000000000000000   -0.0000000000000000   11.1003847944368736
Mg Sc Se
7 16 32
direct
   0.5004812878690645    0.0051306206021334    0.4888234560049369 Mg
   0.2435520185068350    0.7499095656764215    0.7379013657732967 Mg
   0.5011388633738764    0.4973670521279303    0.0001396902552801 Mg
   0.7469307339702804    0.2420765808309722    0.7547917147722982 Mg
   0.0002787073110312    0.9909637881521572    0.9993411517542236 Mg
   0.7465968409694367    0.7469812689723226    0.2509935946238347 Mg
   0.2503494981040676    0.2496911010305549    0.2533037372853991 Mg
   0.1250236841708337    0.8750612766448888    0.3749685086768253 Sc
   0.3728636880390709    0.1383217438643459    0.8707717928476258 Sc
   0.3765145621093429    0.3657803956197558    0.6212815163864727 Sc
   0.1225336553241009    0.1317821921928248    0.6156685065683571 Sc
   0.1259275847437557    0.3756479158285653    0.8782941018667352 Sc
   0.3739927651390494    0.6275066247327513    0.3710294168913733 Sc
   0.3744093220794681    0.8740106586934847    0.1265186799007550 Sc
   0.1267960730056133    0.6198839367801534    0.1219707254860159 Sc
   0.6361635815047547    0.8718177720076223    0.8712183432751355 Sc
   0.8731460138509078    0.1251311914878017    0.3763563673603695 Sc
   0.8779494366776730    0.3724142491791541    0.1290109235153019 Sc
   0.6210479454691021    0.1245278051924743    0.1321239984634958 Sc
   0.6254516538855039    0.3753298687503789    0.3749594429150067 Sc
   0.8748000102008762    0.6248918719654337    0.8749545632146337 Sc
   0.8712155244527215    0.8737889362109736    0.6247474724644386 Sc
   0.6240666778046814    0.6320331604617045    0.6254118511658762 Sc
   0.3877845305639066    0.1149216234020579    0.1170510408159959 Se
   0.6253526999588567    0.3892353790380190    0.6191013955322746 Se
   0.6207542616329956    0.1096308659642037    0.8829271403907055 Se
   0.3925611782852744    0.3804483576703818    0.3811664603672834 Se
   0.3736145107055076    0.1249896355060839    0.6298198940638323 Se
   0.1325906113135639    0.8666910274055190    0.1305336184293233 Se
   0.1377110259706849    0.1233650443518696    0.8614518326555082 Se
   0.3670177406344546    0.8672548214386594    0.3671496816240566 Se
   0.3802886214445717    0.6108781825278021    0.6242215584706348 Se
   0.6034012695451941    0.8813334625244288    0.1183464877252584 Se
   0.6198088279096143    0.6187328764910558    0.3735454638967112 Se
   0.3907871261640182    0.8868138448719192    0.8759371057310134 Se
   0.3754547153364192    0.6391553158987899    0.1323878603880747 Se
   0.1296010787337543    0.3786740474533755    0.6332397289230018 Se
   0.1312071358571707    0.6321684052114193    0.3662080448368155 Se
   0.3564064614481913    0.3727363510113099    0.8659733003043723 Se
   0.8880170542899194    0.1134686984250895    0.6217069523863412 Se
   0.1178793002706422    0.3798646279333645    0.1134448784572244 Se
   0.1168947128953134    0.1163234300564861    0.3833330326044703 Se
   0.8780552164686471    0.3773851401192770    0.8896843612033973 Se
   0.8742790334713952    0.1270092522267179    0.1305745436806424 Se
   0.6317944006497660    0.8536600764261167    0.6313426208580769 Se
   0.6333831804561703    0.1321771148686688    0.3684621436308457 Se
   0.8793390905105928    0.8663789676063769    0.8649099702277752 Se
   0.8807846963780147    0.6126416974352110    0.1198561767360195 Se
   0.1177876119515999    0.8801897028974672    0.6177196530356757 Se
   0.1155487071680765    0.6133626370604650    0.8841240284816135 Se
   0.8781885584988838    0.8808441597775022    0.3792233485098209 Se
   0.8659678977125711    0.6280955784062751    0.6336165433306528 Se
   0.6318695802743304    0.3685356101879790    0.1276012793543183 Se
   0.6271069547238830    0.6345467578694327    0.8613367243418735 Se
   0.8681892681881632    0.3681299277335910    0.3614019902711121 Se
