Mg7 Sc16 Se32
1.0
  11.1003847944368736    0.0000000000000000    0.0000000000000000
   0.0000000000000000   11.1003847944368736    0.0000000000000000
  -0.0000000000000000   -0.0000000000000000   11.1003847944368736
Mg Sc Se
7 16 32
direct
   0.4998390190241594    0.9999721936133734    0.4921540903486606 Mg
   0.2180631977826269    0.2068353876809458    0.1801019769520314 Mg
   0.4987251131332834    0.4940983838253927    0.0050599450677292 Mg
   0.7636130878347420    0.2488535893307122    0.7509454703179742 Mg
   0.9995293466350603    0.0018088071462897    0.9969949892140655 Mg
   0.7520052718290935    0.7496151509269328    0.2478280714031157 Mg
   0.0069603732754725    0.5089590807346789    0.5062260675481800 Mg
   0.1348726285555830    0.8751108141726497    0.3639904892581793 Sc
   0.3698827157740082    0.1251021561759773    0.8676759860771405 Sc
   0.3811718750224065    0.3614783305318003    0.6190851632349558 Sc
   0.1243357496848621    0.1241561108047990    0.6245191376340211 Sc
   0.1241847971323433    0.3714658471132916    0.8666803118455645 Sc
   0.3885269216688018    0.6257800707887962    0.3748359970287657 Sc
   0.3787069571580876    0.8788665445455263    0.1234611149294157 Sc
   0.1301759362076740    0.6220649389534486    0.1215679766118678 Sc
   0.6309371822514240    0.8706850943616374    0.8705370890615525 Sc
   0.8912279373301584    0.1245806424878894    0.3747543515237706 Sc
   0.8712614668571280    0.3790606872776446    0.1349990498153211 Sc
   0.6234131819892048    0.1252678858618141    0.1187326215543630 Sc
   0.6290941534688242    0.3748327172555662    0.3772750398370087 Sc
   0.8696631502544897    0.6177829593371280    0.8726088852649946 Sc
   0.8749957546351331    0.8691034152477779    0.6336224500195670 Sc
   0.6271218047193520    0.6262926490480517    0.6261601068692240 Sc
   0.3913338028129782    0.1092631253199646    0.1235125404672039 Se
   0.6236116613120848    0.3942382684623953    0.6175443541345259 Se
   0.6183412719600425    0.1187375866750852    0.8833411660943640 Se
   0.3812737274978102    0.3731834235636435    0.3828034118591969 Se
   0.3659284113504742    0.1309486986878584    0.6309945781508248 Se
   0.1243611944565491    0.8712910018398711    0.1413150059780849 Se
   0.1343846143821592    0.1361851692839571    0.8768543335693709 Se
   0.3645559373155168    0.8649481100144719    0.3676628003838898 Se
   0.3794083024371758    0.6152796678875113    0.6254394249231733 Se
   0.6170791394848469    0.8828786281243877    0.1171532524724133 Se
   0.6173826042639463    0.6160751563100357    0.3875627665484592 Se
   0.3829001118429776    0.8828346600462398    0.8828432143461317 Se
   0.3670142313417459    0.6329025360772409    0.1326592474697371 Se
   0.1313302985977392    0.3563554930310904    0.6429454035271950 Se
   0.1342575021431041    0.6336234815974391    0.3639129875027925 Se
   0.3734181419297137    0.3643506370371640    0.8680882551284101 Se
   0.8799912412814880    0.1176052819206100    0.6273025194158871 Se
   0.1171233495159271    0.3839989940034806    0.1147455685165434 Se
   0.1333440796604272    0.1173194190992270    0.3782114009167135 Se
   0.8874303758765345    0.3886395657001426    0.8726762402519298 Se
   0.8653936801419200    0.1282235161643470    0.1344542005327825 Se
   0.6400810256432123    0.8685305760517363    0.6446694753943918 Se
   0.6401800579813107    0.1300776213560948    0.3781052214983452 Se
   0.8739559196563373    0.8598902206555813    0.8721908246286330 Se
   0.8857525009554108    0.6158187088379676    0.1147502260614857 Se
   0.1139477786698846    0.8890540114066819    0.6176400842337668 Se
   0.1180242483158437    0.6223089540882194    0.8772648786815802 Se
   0.8827995231776873    0.8833616367860647    0.3829124975070624 Se
   0.8733007533000201    0.6395379301505738    0.6351181931706581 Se
   0.6330234503804806    0.3745582239051837    0.1438882385981677 Se
   0.6314452946350667    0.6308005919662056    0.8675811455042494 Se
   0.8797181242967110    0.3743232924739308    0.3710128484574614 Se
