Mg7 Sc16 Se32
1.0
  11.1003847944368736    0.0000000000000000    0.0000000000000000
   0.0000000000000000   11.1003847944368736    0.0000000000000000
  -0.0000000000000000   -0.0000000000000000   11.1003847944368736
Mg Sc Se
7 16 32
direct
   0.4818167623567907    0.9978201141644643    0.5091921219558684 Mg
   0.2374188423180307    0.7569561605485725    0.7507705126431125 Mg
   0.4969147237790841    0.4916561322798871    0.9972357448845371 Mg
   0.7490739176950932    0.2612274201078336    0.7382534207064790 Mg
   0.9870993662309412    0.9967795416104017    0.9765938690495755 Mg
   0.7470954266503904    0.7451985232698152    0.2315931686580753 Mg
   0.2336594867174185    0.2416070069554497    0.1994871896108329 Mg
   0.1307825591139946    0.8723233473902519    0.3745073715552592 Sc
   0.3753463154812252    0.1250195888611870    0.8745082459806891 Sc
   0.3745099623440594    0.3833737475897535    0.6312207346922285 Sc
   0.1221841302661673    0.1249355494467270    0.6308011589149944 Sc
   0.1340486823759473    0.3636820843235483    0.8784699641605190 Sc
   0.3729951369365396    0.6230899593864629    0.3701658217592577 Sc
   0.3753103692533318    0.8624721391547497    0.1017084679707392 Sc
   0.1201998310106448    0.6227961225612866    0.1331736746032343 Sc
   0.6266104955521661    0.8738829474456340    0.8741674872386604 Sc
   0.8680671434665932    0.1480211813196290    0.3644956614266787 Sc
   0.8857768675728472    0.3510430541228385    0.1261016141683645 Sc
   0.6267115831473103    0.1459497019304099    0.1278254572268836 Sc
   0.6127747266200751    0.3697045782070433    0.3712388154911482 Sc
   0.8606860987409248    0.6325780527370807    0.8622034161819407 Sc
   0.8745846144796909    0.8748562538901957    0.6264330873951367 Sc
   0.6263345512350621    0.6228166750517140    0.6254679365266427 Sc
   0.3863750106233415    0.1149439220131580    0.1207858051483958 Se
   0.6213608650598750    0.3832960108508551    0.6153268781441180 Se
   0.6395738175891509    0.1279750954117908    0.8753832910963646 Se
   0.3809239710659635    0.3855104017512577    0.3798757980035832 Se
   0.3591671247759649    0.1234158264969189    0.6350588640550014 Se
   0.1329764183415105    0.8681906964610219    0.1331601149564356 Se
   0.1322225268155380    0.1301430283579464    0.8657098149626342 Se
   0.3652595293080748    0.8687919708038655    0.3648834530462020 Se
   0.4054946015661187    0.6081360228929898    0.6211752694032441 Se
   0.6189820918581783    0.8859725500186133    0.1132859459053093 Se
   0.6029265952424924    0.6189395171427395    0.3840381665660881 Se
   0.4000627378035759    0.8984360101656921    0.8744361869285752 Se
   0.3674631331157232    0.6322245126863765    0.1318581395456722 Se
   0.1466268720149038    0.3495836002549799    0.6468865673696323 Se
   0.1347843069494042    0.6342465616537120    0.3678693696094569 Se
   0.3618884341165439    0.3643431266306639    0.8657899905788019 Se
   0.8714488874574747    0.1192682656809240    0.6363783758712215 Se
   0.1162801434282746    0.3808551944506218    0.1276191329152012 Se
   0.1171874144643312    0.1156706943764250    0.3843169965246631 Se
   0.8926430154282731    0.3678687864647242    0.8832485029485229 Se
   0.8730972518752788    0.1231591986205464    0.1245871917826157 Se
   0.6415161371120430    0.8561370612630403    0.6231994320827510 Se
   0.6306260197654344    0.1385806294518865    0.3780111767575649 Se
   0.8644629126102474    0.8666863809268138    0.8681680087996377 Se
   0.8815376144872830    0.6155086793297238    0.1197541440093591 Se
   0.1141211981071059    0.8836486597483896    0.6270312732589983 Se
   0.1157287356054063    0.6187572863911925    0.8582300084268183 Se
   0.8843714676071983    0.8806687894181885    0.3728422506926335 Se
   0.8650548551139337    0.6281672213905314    0.6373181804979877 Se
   0.6340556499254132    0.3650166700957891    0.1277305545399308 Se
   0.6435760731076320    0.6466287990876441    0.8528721902577459 Se
   0.8668580447058564    0.3665187807211919    0.3673482279924218 Se
