Mg7 Sc16 Se32
1.0
  11.1003847944368736    0.0000000000000000    0.0000000000000000
   0.0000000000000000   11.1003847944368736    0.0000000000000000
  -0.0000000000000000   -0.0000000000000000   11.1003847944368736
Mg Sc Se
7 16 32
direct
   0.5056711821943495    0.0004325417456740    0.4928817541619601 Mg
   0.2499791321923173    0.7462049259758875    0.7591261813007772 Mg
   0.4960018339926888    0.5081432428219441    0.9984069395216597 Mg
   0.7391070493976197    0.2483166679387464    0.7543059692770402 Mg
   0.2018492545483402    0.2807339450059572    0.2586080148237098 Mg
   0.7548934374061250    0.7528781067839977    0.2469453367972400 Mg
   0.0002853107452198    0.4897899648850190    0.4965993538683324 Mg
   0.1352682393326566    0.8855746108594384    0.3741013422451058 Sc
   0.3889680918259678    0.1131116576136855    0.8675171125616132 Sc
   0.3749558612931309    0.3672832468690376    0.6373439027570815 Sc
   0.1258508690464437    0.1239620986404406    0.6280455291191588 Sc
   0.1448668009819225    0.3774474449629091    0.8718772673709612 Sc
   0.3660683280801183    0.6335557206126434    0.3834231627295417 Sc
   0.3634562709858666    0.8697289698575971    0.1382184146143667 Sc
   0.1030147703550908    0.6181840207111857    0.1275712800104259 Sc
   0.6249920894476902    0.8749638455059807    0.8749984016352566 Sc
   0.8730204540496072    0.1272178889721212    0.3694780730691156 Sc
   0.8753547396848963    0.3785934268364465    0.1260676351248649 Sc
   0.6301764294469676    0.1306942608630207    0.1253657326764843 Sc
   0.6373762572157861    0.3731903784234505    0.3814572813666974 Sc
   0.8783111573144140    0.6184644371521980    0.8706114325431854 Sc
   0.8536765831879949    0.8792254114651479    0.6290843809431265 Sc
   0.6215560125723723    0.6280197183085918    0.6236666401128040 Sc
   0.3732796227269052    0.1125890179504306    0.1240303818252111 Se
   0.6145280028084988    0.3771802209264480    0.6167078674768635 Se
   0.6216210350881849    0.1221493281061097    0.8610152309114962 Se
   0.3832892351102525    0.3832079804596150    0.3823483972333136 Se
   0.3618432094660633    0.1260160939240596    0.6455041025007447 Se
   0.1469378539081134    0.8829442003754594    0.1277637194460925 Se
   0.1307240857347684    0.1240382202121174    0.8747691630622976 Se
   0.3812951845021106    0.8754411102871054    0.3704824649178539 Se
   0.3868398697310185    0.6134891611091340    0.6181416475043456 Se
   0.6141847613011875    0.8847933718218337    0.1115379776892902 Se
   0.6135290655791958    0.6115924800776258    0.3804614551686756 Se
   0.3691460969328434    0.8956578472585645    0.8838929339025224 Se
   0.3686530217176090    0.6318065278261388    0.1322329181526877 Se
   0.1252220689281120    0.3670977726230882    0.6423275887006641 Se
   0.1427651080250981    0.6327737519133655    0.3652411547132255 Se
   0.3850810956818152    0.3708445407251751    0.8718085849101327 Se
   0.8851618116486056    0.1173169278279931    0.6166588924747306 Se
   0.1090060167872901    0.3809602160723515    0.0951410408974562 Se
   0.1115749428431890    0.1066924179268975    0.3858930179956311 Se
   0.8813642273144986    0.3738685455056699    0.8930039639825841 Se
   0.8603961802287282    0.1417633171719572    0.1441894244121833 Se
   0.6305088462788386    0.8774486402521040    0.6333659077605656 Se
   0.6220144970920374    0.1356511917951798    0.3668193677741335 Se
   0.8607329088059525    0.8668345230649896    0.8660857347825301 Se
   0.8755714522078500    0.6170761135669346    0.1103182833434245 Se
   0.1116194588231106    0.9007731538933784    0.6308908056294317 Se
   0.1153128855514507    0.6150773754784238    0.8847290389920690 Se
   0.8642717694336325    0.8893063746218032    0.3834841559523449 Se
   0.8688001481450728    0.6341390315074995    0.6360464487638550 Se
   0.6352981908442773    0.3694250873761741    0.1322459318320001 Se
   0.6348324875117465    0.6297454511538096    0.8760804710229749 Se
   0.8677929104037906    0.3671761378902081    0.3659865379209534 Se
