Mg7 Sc16 Se32
1.0
  11.1003847944368736    0.0000000000000000    0.0000000000000000
   0.0000000000000000   11.1003847944368736    0.0000000000000000
  -0.0000000000000000   -0.0000000000000000   11.1003847944368736
Mg Sc Se
7 16 32
direct
   0.1694311984663505    0.2891969861240438    0.2270082722348432 Mg
   0.2492318434868390    0.7581117036117717    0.7500173375069372 Mg
   0.5096171914327792    0.5008493526339913    0.9991985782069388 Mg
   0.7501152217279315    0.2476240127418954    0.7542733291750212 Mg
   0.0003534257371609    0.9996983464988194    0.0004716125403709 Mg
   0.7506349425895544    0.7603874040284292    0.2342239087758724 Mg
   0.9970185641105923    0.5001566306905105    0.5028273107784842 Mg
   0.1156200064879545    0.8642155012200449    0.3647446648084076 Sc
   0.3782588732599889    0.1226008354090777    0.8636345348753758 Sc
   0.3664251754030977    0.3731384943627267    0.6337848395822953 Sc
   0.1299058855938102    0.1220358904643181    0.6284958321082603 Sc
   0.1326519743766883    0.3805558000929686    0.8726811503306557 Sc
   0.3844645061778579    0.6208486059572195    0.3816876761296750 Sc
   0.3699835007432898    0.8820385180898352    0.1080756526783416 Sc
   0.1395446821336800    0.6331072948867469    0.1306276333547955 Sc
   0.6252444769128984    0.8764078982863508    0.8763497240058509 Sc
   0.8630926520729466    0.1376607112306693    0.3741493525627048 Sc
   0.8872198926829771    0.3852261355930927    0.1218536316212558 Sc
   0.6078050703118659    0.1381718577874843    0.1234781507001455 Sc
   0.6168513161007231    0.3739857187853677    0.3770434711486937 Sc
   0.8657773676599735    0.6418159338948325    0.8824299090142440 Sc
   0.8675373218706766    0.8810917529798565    0.6178462774050109 Sc
   0.6255294072116340    0.6283932719645362    0.6209320067200405 Sc
   0.3769699980108509    0.0981342799855082    0.1294346728498507 Se
   0.6153907124646343    0.3822239048313062    0.6187442729030317 Se
   0.6098448435812369    0.1296857693866829    0.8866443696093927 Se
   0.3789173998780699    0.3913505902038695    0.3825185408607699 Se
   0.3686577774525451    0.1269631895731519    0.6537733025798310 Se
   0.1249816260288298    0.8560167297551244    0.1257839673342865 Se
   0.1324001255040929    0.1296259562230738    0.8692909898683029 Se
   0.3692905514024597    0.8694012124353785    0.3680915399167730 Se
   0.3859531008450171    0.6144134289184748    0.6257508489366709 Se
   0.6233670605908366    0.8705293786310002    0.1060641544247437 Se
   0.6177888479116710    0.6166941132555158    0.3864128583170083 Se
   0.3832873103199625    0.8833047635784070    0.8822532712464032 Se
   0.3727760772358454    0.6206486615839495    0.1321643518788460 Se
   0.1281161291043042    0.3600350220927992    0.6195034546515602 Se
   0.1330287863233174    0.6329385997999567    0.3669142920672798 Se
   0.3697283966974714    0.3657796313405494    0.8585534426541025 Se
   0.8810663689298298    0.1160159015593856    0.6176226734214049 Se
   0.1252000603749004    0.3899629542720077    0.0999042847888438 Se
   0.1132927644072224    0.1100282910066257    0.3834825215308243 Se
   0.8736565934096133    0.3844543420830122    0.8954502831215931 Se
   0.8770733887450641    0.1293101623854645    0.1294547061134708 Se
   0.6255792880192984    0.8684259944638875    0.6371299609163718 Se
   0.6369344498325429    0.1254583178728001    0.3828485178629763 Se
   0.8704528147997342    0.8752397988615579    0.8757952264375197 Se
   0.8941894403090114    0.6110248615417777    0.1296203597338983 Se
   0.1179063525863012    0.8833973610277224    0.6174339770542419 Se
   0.0989038412304554    0.6162404908919310    0.8640259846571625 Se
   0.8929669835592167    0.8590723330908575    0.3838559427627098 Se
   0.8485000143938868    0.6502491778368825    0.6262089637477606 Se
   0.6380240745011426    0.3767228834719160    0.1297891918918666 Se
   0.6406413423018830    0.6377203945798375    0.8682456311154240 Se
   0.8637162646134066    0.3548367710728805    0.3678955943044580 Se
