Mg7 Sc16 Se32
1.0
  11.1003847944368736    0.0000000000000000    0.0000000000000000
   0.0000000000000000   11.1003847944368736    0.0000000000000000
  -0.0000000000000000   -0.0000000000000000   11.1003847944368736
Mg Sc Se
7 16 32
direct
   0.4612721314935194    0.0379981611997289    0.4707724681039208 Mg
   0.2585678555805789    0.7535233440319011    0.7445948271618392 Mg
   0.5005439694622765    0.5033759498679445    0.0072249196167452 Mg
   0.7657086437784779    0.2416683683860583    0.7535597010540092 Mg
   0.0038348544251342    0.0253314858767531    0.9921252940477590 Mg
   0.7544485299313395    0.7461919454527509    0.2573786596040869 Mg
   0.9809715644536012    0.4834300186959575    0.4951061160961127 Mg
   0.1252222544613498    0.8747709899834277    0.3749356965002279 Sc
   0.3900956423664648    0.1069307813296299    0.8714011763933347 Sc
   0.3793125856406031    0.3547200646647099    0.6178423233223842 Sc
   0.1294912145476301    0.1261014906233263    0.6189498761527842 Sc
   0.1214686647516224    0.3918532035669978    0.8889349096539024 Sc
   0.3668260875910465    0.6259136814449429    0.3720440913475377 Sc
   0.3776796680660447    0.8736028383929293    0.1142681329682177 Sc
   0.1280271488111611    0.6227203211068587    0.1199544494790567 Sc
   0.6379389985128969    0.8876513049958991    0.8663160279360753 Sc
   0.8764896434644699    0.1406348305225984    0.3593134550241455 Sc
   0.8750208549405913    0.3749514743944760    0.1250582108847144 Sc
   0.6315417938302466    0.1236062504369371    0.1265001286535819 Sc
   0.6103578525566563    0.3822962352791573    0.3811800064029712 Sc
   0.8718684834858060    0.6242260882054449    0.8738164399280335 Sc
   0.8669657476028977    0.8913361168640110    0.6210734241550764 Sc
   0.6067270709600389    0.6097885421257953    0.6219473108295092 Sc
   0.3761474505035680    0.1029324309698034    0.1098896543959520 Se
   0.6093950580065037    0.3889541630298717    0.6197315775823440 Se
   0.6080591948763079    0.0976452720270588    0.8889581420118698 Se
   0.3839067799559841    0.3824598226254168    0.3832410241314495 Se
   0.3805964690991335    0.1117220358367725    0.6328137850728482 Se
   0.1097027341101936    0.8588810234103631    0.1336349053106592 Se
   0.1249867950093844    0.1253188970827450    0.8582787094101264 Se
   0.3591956987340585    0.8744759606103386    0.3477202328105043 Se
   0.3898444738787282    0.6139187761848609    0.6293013457778307 Se
   0.6199559764872282    0.8837783511248323    0.1140754878545438 Se
   0.6167275314024036    0.6080341523261210    0.3755913054664455 Se
   0.3932710020258873    0.8737315632827294    0.8924855620183662 Se
   0.3638451009422051    0.6304463671344960    0.1354812620190134 Se
   0.1380495712913078    0.3746535331052180    0.6271633908946317 Se
   0.1121518475734208    0.6287725974168180    0.3611251148068130 Se
   0.3620663534994229    0.3436248355806811    0.8581349553773135 Se
   0.8824389859652160    0.1165470714419262    0.6165388920064578 Se
   0.1243047030318354    0.3813982867702903    0.1186953771551978 Se
   0.0980517643338151    0.1293451433753439    0.3872619428947564 Se
   0.8841201201159367    0.3840088722252601    0.8817740087561972 Se
   0.8695433143813981    0.1284373332340190    0.1428745579148593 Se
   0.6328812621556270    0.8671201376656420    0.6328760868912610 Se
   0.6372083561013835    0.1202700638370069    0.3646699995044244 Se
   0.8592184947633993    0.8500068498246733    0.8685252928325927 Se
   0.8865889096752504    0.6176005457898780    0.1285735268839722 Se
   0.1402166656788162    0.8830252368362853    0.6111547121845423 Se
   0.1022932862006464    0.6054126168968196    0.8994954078207256 Se
   0.8803005046034322    0.8891078748910654    0.3796680538064623 Se
   0.8662305907018619    0.6338855272058743    0.6207582231924099 Se
   0.6254296287599440    0.3716519922373983    0.1358493516313803 Se
   0.6280555326309870    0.6422568093895447    0.8646503230888068 Se
   0.8693827232527911    0.3619548931327735    0.3525446206619994 Se
