Mg7 Sc16 Se32
1.0
  11.1003847944368736    0.0000000000000000    0.0000000000000000
   0.0000000000000000   11.1003847944368736    0.0000000000000000
  -0.0000000000000000   -0.0000000000000000   11.1003847944368736
Mg Sc Se
7 16 32
direct
   0.4913440139818212    0.0065627752343555    0.4974715116388600 Mg
   0.2501597483687611    0.7504863700368741    0.7500049229082894 Mg
   0.4981348354677102    0.4983680767798087    0.9957041994884460 Mg
   0.7480258953342322    0.2487994674047747    0.7486911658254681 Mg
   0.9980848460792585    0.0040681558148627    0.9982863463196711 Mg
   0.7481287595959363    0.7526805549397619    0.2523378088978323 Mg
   0.9961873836794193    0.5086579251933353    0.5048882764565575 Mg
   0.1270274332031925    0.8731671845270428    0.3770062750615196 Sc
   0.3742518995667948    0.1204331851665342    0.8669069296136714 Sc
   0.3755237189772833    0.3744314620596278    0.6257045177177187 Sc
   0.1245397887348726    0.1235105911541636    0.6218887387587486 Sc
   0.1234206298465965    0.3706341229599404    0.8755532452125017 Sc
   0.3748665390567962    0.6252533600055719    0.3744712393444073 Sc
   0.3753018261167252    0.8738297106532658    0.1222037402852482 Sc
   0.1224899161292248    0.6238754831764778    0.1237944065327052 Sc
   0.6270293096639571    0.8729540455685086    0.8798151119698728 Sc
   0.8764972567334598    0.1159040831002844    0.3690810515074816 Sc
   0.8690300097839989    0.3683393696110904    0.1138498477890126 Sc
   0.6347863648410463    0.1238044551206451    0.1360411184168828 Sc
   0.6245983343008602    0.3762673605013663    0.3737022646501365 Sc
   0.8756245135599563    0.6293648920171256    0.8777363456622059 Sc
   0.8755388970448151    0.8743124129888380    0.6284444527383586 Sc
   0.6214009688740230    0.6271327067525244    0.6241332420718740 Sc
   0.3885858262128800    0.1187873564430027    0.1047022856601825 Se
   0.6171604422000838    0.3831828670203025    0.6203403332479051 Se
   0.6220885345789015    0.1179341180584645    0.8711756080274207 Se
   0.3828961448115442    0.3935517999035931    0.3815554375846963 Se
   0.3736436196674753    0.1356421349677586    0.6362821580684361 Se
   0.1336816342132015    0.8689365601961924    0.1294075983385759 Se
   0.1304692616626797    0.1204201381912053    0.8555330496746065 Se
   0.3688858724684557    0.8602228231375906    0.3670534786612281 Se
   0.3729227974024712    0.6300259645102849    0.6187680506153646 Se
   0.6048736930289738    0.8791319538300154    0.1105788236160600 Se
   0.6242388750277280    0.6235294920742422    0.3806899822241251 Se
   0.3847793152451160    0.8808276632488378    0.8861875733356122 Se
   0.3736414139514081    0.6363346636842622    0.1312640151140804 Se
   0.1447194557243014    0.3618085205253262    0.6342761379025901 Se
   0.1283818467286985    0.6329365464855405    0.3674482442976918 Se
   0.3682597874363979    0.3668546188534753    0.8633412780239335 Se
   0.8733139053972233    0.1228323654672456    0.6237515301370040 Se
   0.1161749204151532    0.3837121808541060    0.1170998773111469 Se
   0.1087633326436697    0.1104564040713074    0.3703242686403979 Se
   0.8828157738219027    0.3824067070719019    0.8824531701240953 Se
   0.8691796071531320    0.1330625527655888    0.1337676672241190 Se
   0.6356799096564903    0.8723237413622913    0.6290126430217964 Se
   0.6187307364123129    0.1307317560059560    0.3630260210672091 Se
   0.8739375680865678    0.8648429347465632    0.8700138990876758 Se
   0.8836733152925748    0.6139530320783347    0.1186747791022128 Se
   0.1109553146469770    0.8723590784522997    0.6073575997058508 Se
   0.1162944125715799    0.6164866182989662    0.8782960116269528 Se
   0.8833107509299580    0.8864921531749819    0.3859088766387818 Se
   0.8717771636309539    0.6266847319483814    0.6422546883494348 Se
   0.6328045849302788    0.3670648755747475    0.1328993508547485 Se
   0.6423634656483618    0.6387723824870312    0.8680006932692009 Se
   0.8721757164825276    0.3682010076228234    0.3650144222171548 Se
