Mg7 Sc16 Se32
1.0
  11.1003847944368736    0.0000000000000000    0.0000000000000000
   0.0000000000000000   11.1003847944368736    0.0000000000000000
  -0.0000000000000000   -0.0000000000000000   11.1003847944368736
Mg Sc Se
7 16 32
direct
   0.4885181396388197    0.0037746605893062    0.4960376970285004 Mg
   0.2486291316460247    0.7525865377019709    0.7490867325271392 Mg
   0.4244501091060048    0.4151506824097582    0.0686768691795580 Mg
   0.7454939199287014    0.2515918922210579    0.7436884090345159 Mg
   0.0128752592358240    0.9980272239582475    0.0064029055226178 Mg
   0.7466305371342359    0.7553486295574036    0.2597274925144379 Mg
   0.9927605194314431    0.5062484955117552    0.4963442441264779 Mg
   0.1247866469451542    0.8766048934947002    0.3752051155213167 Sc
   0.3779282710428667    0.1264477473383804    0.8862955132487244 Sc
   0.3751703430603992    0.3767750427076271    0.6250364217126536 Sc
   0.1372164331963575    0.1163567989374138    0.6221907669895849 Sc
   0.1272041918126712    0.3717343586881140    0.8685154258174980 Sc
   0.3678076872689172    0.6259752052658841    0.3825423056033011 Sc
   0.3714661269887476    0.8611373174296639    0.1266740387806555 Sc
   0.1261167336609527    0.6209013295255693    0.1235970826343145 Sc
   0.6282665119423253    0.8712295221082083    0.8757233071857351 Sc
   0.8731880128606219    0.1195542741266396    0.3741990376738101 Sc
   0.8736250573681424    0.3806245731020507    0.1099629150501732 Sc
   0.6239078119742340    0.1254755590028125    0.1247776849843488 Sc
   0.6282622442804939    0.3864074077606660    0.3811569399158053 Sc
   0.8743198549488503    0.6192111205386274    0.8768638116991410 Sc
   0.8741517667968585    0.8727256312114535    0.6237025351017715 Sc
   0.6135876380758651    0.6172016094909203    0.6265025232347968 Sc
   0.3868188366505654    0.1230689671129330    0.1308568012429411 Se
   0.6144625691717822    0.3871373615811559    0.6050687862975046 Se
   0.6099140676152054    0.1114987890934693    0.8778526793910737 Se
   0.3946730137548369    0.3734928408232100    0.3901059016394438 Se
   0.3689014262346012    0.1303357582139328    0.6428830159199140 Se
   0.1265467926675112    0.8724017976878786    0.1306840719916798 Se
   0.1380360587676028    0.1252897396977677    0.8713678409479121 Se
   0.3784757191085091    0.8709003787319951    0.3582361457815310 Se
   0.3827479099488083    0.6171531844466339    0.6172104624852431 Se
   0.6262128773212392    0.8793098536736704    0.1278852090348983 Se
   0.6272646830813046    0.6108959082954256    0.3947506292527446 Se
   0.3875859517242556    0.8803991260596751    0.8747739830718688 Se
   0.3722331244577607    0.6329436767242238    0.1274732000389837 Se
   0.1326256614884262    0.3680445273888547    0.6334224030001608 Se
   0.1207840575391317    0.6285277083437416    0.3679778279562800 Se
   0.3685402310800449    0.3591097884348685    0.8811405654853325 Se
   0.8925848381163899    0.1133473724893499    0.6091844222702211 Se
   0.1150080817188369    0.3872248861832035    0.1176820861804603 Se
   0.1168769821180289    0.1213725232974050    0.3894374714035102 Se
   0.8815181953422795    0.3847531674499300    0.8788660269229558 Se
   0.8635726370213395    0.1327195292170054    0.1398156774360490 Se
   0.6330163117324312    0.8667616284949112    0.6334191626905755 Se
   0.6322358461245587    0.1302677105883142    0.3654750554012269 Se
   0.8688440685387108    0.8588795227967294    0.8654794809201682 Se
   0.8876065884702471    0.6186064651759403    0.1152614366811406 Se
   0.1211922798836400    0.8831895119960261    0.6092285916853339 Se
   0.1259618698879764    0.6109672294445112    0.8888854908867696 Se
   0.8830420833264643    0.8867567804892368    0.3846378987422452 Se
   0.8759026808761048    0.6365483885293449    0.6426655580371415 Se
   0.6323723063160814    0.3724966408406372    0.1344523633439581 Se
   0.6355094157485418    0.6346802660737082    0.8684197539397516 Se
   0.8568636603456135    0.3599276839837634    0.3609320445945444 Se
