Mg7 Sc16 Se32
1.0
  11.1003847944368736    0.0000000000000000    0.0000000000000000
   0.0000000000000000   11.1003847944368736    0.0000000000000000
  -0.0000000000000000   -0.0000000000000000   11.1003847944368736
Mg Sc Se
7 16 32
direct
   0.5032311941505849    0.0013519844946026    0.5027171873483739 Mg
   0.2074069029496033    0.4243382060669540    0.3679878530324298 Mg
   0.4985577609921795    0.4981544306144744    0.9999751660646585 Mg
   0.7503920376430661    0.2509625990241490    0.7461915233373004 Mg
   0.9989081741588832    0.9958781622048001    0.0029454448579173 Mg
   0.7526402251635593    0.7523576646225253    0.2547539623496898 Mg
   0.9998820576825702    0.5000883170831153    0.4989323638089309 Mg
   0.1258630640650878    0.8748158569585770    0.3816585931353194 Sc
   0.3791389797591432    0.1319411790402537    0.8749832804608564 Sc
   0.3779186237487032    0.3818478451228007    0.6295988851417551 Sc
   0.1249680375642448    0.1240010469516711    0.6196715333592323 Sc
   0.1207860078975367    0.3817979819973183    0.8787142426486764 Sc
   0.3688250474966029    0.6274621543669788    0.3775617462581928 Sc
   0.3722730168710096    0.8752632762491196    0.1220620163277183 Sc
   0.1238028770698112    0.6289052278915975    0.1293343210715491 Sc
   0.6224665285012334    0.8727827767948513    0.8667167467667816 Sc
   0.8777714714855445    0.1294977719161668    0.3714570092756409 Sc
   0.8708714550065416    0.3679667929067277    0.1292598813378264 Sc
   0.6244440057711597    0.1251319350737001    0.1238973793551074 Sc
   0.6175271313290214    0.3780721175673326    0.3706637518347196 Sc
   0.8752016056607260    0.6250024990804675    0.8748267404596806 Sc
   0.8670497823307933    0.8741762685669856    0.6218730857266174 Sc
   0.6188667874625530    0.6190761109445233    0.6234193726513906 Sc
   0.3902829226298031    0.1179611474487525    0.1167114801338692 Se
   0.6170070832065090    0.3807880083649393    0.6260552776468558 Se
   0.6173861187025541    0.1158275925059092    0.8829635597904069 Se
   0.3848977653984474    0.3808301608568906    0.3843583414954012 Se
   0.3717523008327417    0.1278799903589902    0.6390940205756578 Se
   0.1330569367124144    0.8673082654572354    0.1305805382047401 Se
   0.1368891500977512    0.1262115453869201    0.8706351007334703 Se
   0.3618773294137819    0.8671835671612871    0.3661191613958437 Se
   0.3913989404855683    0.6160201691403329    0.6184573399839398 Se
   0.6161034727833864    0.8862047324295417    0.1128938767352838 Se
   0.6162110241006040    0.6215399927909908    0.3759338151911896 Se
   0.3883447758939970    0.8871293015204204    0.8797857540761698 Se
   0.3694761501005800    0.6336285447617814    0.1307718988480646 Se
   0.1356713551579467    0.3587362211545124    0.6339963110245965 Se
   0.1353378378200121    0.6290911007964322    0.3579409178472537 Se
   0.3720959951004462    0.3716601901299897    0.8736207541522701 Se
   0.8829904483405648    0.1131470068061796    0.6099321013243388 Se
   0.1173189345719753    0.3835575916943860    0.1184399213926679 Se
   0.1182468288841958    0.1200818827140889    0.3822495348793866 Se
   0.8886546354811140    0.3880900847822089    0.8788065235422188 Se
   0.8634815841418046    0.1333340983789658    0.1313651585459183 Se
   0.6324701533155731    0.8669669739618839    0.6318017486465956 Se
   0.6260726299952076    0.1347023793528354    0.3618050129751282 Se
   0.8704949273686703    0.8635693072684975    0.8660910656060222 Se
   0.8775489709260029    0.6154220287958989    0.1149272914554253 Se
   0.1152094500791165    0.8835398743506652    0.6211218516944976 Se
   0.1190141364855083    0.6152547918685287    0.8795826446102026 Se
   0.8840752364183678    0.8816131939807010    0.3825143443729355 Se
   0.8689593745783837    0.6285327100615922    0.6372268187813813 Se
   0.6340247421492973    0.3678876310400339    0.1336376815802265 Se
   0.6292590984833778    0.6239245875054731    0.8668854541738620 Se
   0.8605689359103446    0.3692484508153301    0.3714529403706827 Se
