Mg7 Sc16 Se32
1.0
  11.1003847944368736    0.0000000000000000    0.0000000000000000
   0.0000000000000000   11.1003847944368736    0.0000000000000000
  -0.0000000000000000   -0.0000000000000000   11.1003847944368736
Mg Sc Se
7 16 32
direct
   0.5029317839106427    0.9979171735555460    0.5015790973643687 Mg
   0.2619150483133785    0.7550621766325818    0.7546465041550182 Mg
   0.3735049592625103    0.3957458067707166    0.0895218129269977 Mg
   0.7475245333114590    0.2439412496053562    0.7612443193806886 Mg
   0.0007367097482641    0.9967500236663906    0.9985308178193860 Mg
   0.7517663404270508    0.7512836280580144    0.2491413834135205 Mg
   0.0030180734885224    0.4945963691251655    0.5014538336926199 Mg
   0.1356934896399022    0.8776595508393600    0.3845063077327823 Sc
   0.3748242641284006    0.1250217810317980    0.8751872442824372 Sc
   0.3755065049066729    0.3753750841410570    0.6337549825911620 Sc
   0.1350531333857496    0.1205528851811241    0.6236894542225094 Sc
   0.1116851828391581    0.3698454102058328    0.8767988901281878 Sc
   0.3793580526442999    0.6161495069821946    0.3701775582403539 Sc
   0.3679401793045834    0.8833066190722010    0.1303367684919360 Sc
   0.1176862832168971    0.6154644797349079    0.1167122301663132 Sc
   0.6156386283410780    0.8664267970701571    0.8744879997286668 Sc
   0.8911630611797228    0.1305441987878971    0.3767873276439252 Sc
   0.8733138802015671    0.3697707195049978    0.1207119453907629 Sc
   0.6191280898763838    0.1239604766765089    0.1284387939083948 Sc
   0.6242882105559218    0.3751235807093999    0.3755410965708079 Sc
   0.8671323261066209    0.6253284029009509    0.8738068426330408 Sc
   0.8737177157946027    0.8771109919509816    0.6227644721016510 Sc
   0.6238681477626856    0.6248223044518543    0.6349900128739722 Sc
   0.3817826469494047    0.1037397998212497    0.1127157826858199 Se
   0.6140744757515298    0.3883510997961853    0.6152313861561074 Se
   0.6097415697544126    0.1162126553291059    0.8795561422418761 Se
   0.3823810010099247    0.3856948610278230    0.3838949250664572 Se
   0.3629674302707018    0.1355311601370967    0.6360982979278829 Se
   0.1386488016937235    0.8703707773853848    0.1376125521916215 Se
   0.1418499672973011    0.1304866958101999    0.8749566738948347 Se
   0.3703731571961993    0.8691627130101880    0.3721308286684457 Se
   0.3858842520247753    0.6154309393840033    0.6048733025305906 Se
   0.6166918844119020    0.8829752524139244    0.1172215441552600 Se
   0.6165538015769596    0.6174010199766846    0.3818704528973283 Se
   0.3824032255720450    0.8803276538838153    0.8803221309655408 Se
   0.3676910276315268    0.6489519322483683    0.1366669817467182 Se
   0.1218339641822569    0.3652869682608067    0.6198945009905870 Se
   0.1311992376945153    0.6278817213784011    0.3540603430634952 Se
   0.3693566698392192    0.3678456598500440    0.8690853968418445 Se
   0.8860366114212661    0.1142222025514282    0.6217270471375898 Se
   0.1221400080978792    0.3835575916343459    0.1111770302694187 Se
   0.1203108803655938    0.1172442750460856    0.3838720355866110 Se
   0.8819025554785354    0.3782600295537960    0.8816772874314270 Se
   0.8683036339810211    0.1339161758040598    0.1326494974576448 Se
   0.6344543939780013    0.8666460726306139    0.6312283991287698 Se
   0.6386163363647458    0.1379430357228966    0.3645289790634694 Se
   0.8670093774659073    0.8673269852591770    0.8670319371228469 Se
   0.8782544919095042    0.6183933232653225    0.1185470970056378 Se
   0.1216003911186200    0.8859153147430960    0.6305890317881162 Se
   0.1260010668162457    0.6131450813825878    0.8854908345202948 Se
   0.8847205486699907    0.8842607349364866    0.3747062245358286 Se
   0.8776549533199577    0.6435228149989906    0.6253260997446363 Se
   0.6247499064331663    0.3661790325719553    0.1384443693578773 Se
   0.6318682044345519    0.6336198050124950    0.8627782677446346 Se
   0.8634038877285429    0.3766489134135669    0.3727554916789236 Se
