Mg7 Sc16 Se32
1.0
  11.1003847944368736    0.0000000000000000    0.0000000000000000
   0.0000000000000000   11.1003847944368736    0.0000000000000000
  -0.0000000000000000   -0.0000000000000000   11.1003847944368736
Mg Sc Se
7 16 32
direct
   0.4995215867923258    0.0001803735847157    0.5001676905364686 Mg
   0.2427370696314761    0.7412309329335938    0.7589730523381469 Mg
   0.2572366176859575    0.2555777575647440    0.2480417473667572 Mg
   0.7469905803510216    0.2663857566175962    0.7549082791242709 Mg
   0.0041524790432447    0.0002685112094864    0.0028707918685353 Mg
   0.7489397118132261    0.7493801211154421    0.2528120145383798 Mg
   0.0030576864061235    0.4989775139433342    0.4993961198434639 Mg
   0.1206256052074260    0.8687181913445093    0.3723467552154644 Sc
   0.3638574602782570    0.1299754737231458    0.8821620622202764 Sc
   0.3851075626159276    0.3671674994276846    0.6397072207040942 Sc
   0.1390412581672520    0.1290937038770995    0.6154868698232550 Sc
   0.1248762120689591    0.3788206073500854    0.8733712076590060 Sc
   0.3699645787239260    0.6236412830421019    0.3745938443220002 Sc
   0.3739232985183104    0.8682440529317158    0.1243614092954934 Sc
   0.1317079800454322    0.6319451713170580    0.1375503520795613 Sc
   0.6215658925521255    0.8747036936638064    0.8718887238998192 Sc
   0.8747685545139190    0.1287744813025082    0.3751033464906142 Sc
   0.8780846381158084    0.3761254853642360    0.1300641755075116 Sc
   0.6216563265924696    0.1285941085433630    0.1218692159092536 Sc
   0.6186025019686781    0.3782653348774739    0.3732787524524321 Sc
   0.8725157313339731    0.6174946408380676    0.8897593689682335 Sc
   0.8736006459547719    0.8749740221609309    0.6187680770996794 Sc
   0.6199005510750714    0.6242534863262977    0.6226358325466594 Sc
   0.3977663050126995    0.1080472049213079    0.1242419660193492 Se
   0.6220949263412201    0.3796982889913788    0.6166543493891435 Se
   0.6190393733696949    0.1221330908766801    0.8848019918589464 Se
   0.3842704167008913    0.3856220683336040    0.3779296653777651 Se
   0.3695853374501513    0.1305173203937860    0.6330007452638251 Se
   0.1418237475000593    0.8657735627914760    0.1391294864277030 Se
   0.1328285287837052    0.1331972063701398    0.8606688291567610 Se
   0.3604671370431006    0.8735696933156415    0.3825014286179063 Se
   0.3822623730580509    0.6181684360164278    0.6193517482562483 Se
   0.6167700581900883    0.8859889245066987    0.1218203927356734 Se
   0.6175828060473904    0.6217267531501027    0.3846161200438257 Se
   0.3870019011365440    0.8901693659040456    0.8786470905325580 Se
   0.3660712326454528    0.6327802819134095    0.1335107088028104 Se
   0.1273323865361343    0.3627944126473296    0.6404514821233714 Se
   0.1217736428802636    0.6335411640662006    0.3634327006987081 Se
   0.3594287366569296    0.3653342891735078    0.8754997363795718 Se
   0.8863139645919828    0.1180359402694452    0.6128218096163561 Se
   0.1307908473881725    0.3874369988718281    0.1222362160378078 Se
   0.1117255598183259    0.1226650598963612    0.3795118980372307 Se
   0.8842074631776198    0.3846153048191562    0.8823201689895954 Se
   0.8731612479629527    0.1370564731357027    0.1278888039292750 Se
   0.6409960527544818    0.8666717535095525    0.6299462933917704 Se
   0.6287681636129970    0.1284462419038464    0.3525195755568130 Se
   0.8711281038914578    0.8690362630022359    0.8862696876054864 Se
   0.8868316693781352    0.6148842620147179    0.1168268298386469 Se
   0.1181115525407142    0.8795482975801657    0.6152126592870205 Se
   0.1163980009419390    0.6165257026764647    0.8819142183065695 Se
   0.8842899849477471    0.8915499531882404    0.3740363362352874 Se
   0.8556358136060954    0.6338210790888272    0.6272437093665512 Se
   0.6304890992814799    0.3605422938436948    0.1349476548783102 Se
   0.6310036838428591    0.6361755886702963    0.8635440752489616 Se
   0.8664219521141492    0.3706031553409144    0.3649839287397946 Se
