Mg7 Sc16 Se32
1.0
  11.1003847944368736    0.0000000000000000    0.0000000000000000
   0.0000000000000000   11.1003847944368736    0.0000000000000000
  -0.0000000000000000   -0.0000000000000000   11.1003847944368736
Mg Sc Se
7 16 32
direct
   0.4998604583358784    0.0121230396586257    0.5062145931284510 Mg
   0.2473206621248791    0.7560902017347864    0.7377007881176544 Mg
   0.2666152462456020    0.3183582494166608    0.1461153518528946 Mg
   0.7451448163326655    0.2482521607755606    0.7508470652156221 Mg
   0.9998574191650537    0.9993192779302773    0.0007329951709575 Mg
   0.7528275027951230    0.7494007142552473    0.2506212971484199 Mg
   0.9947498354089723    0.4952723404661426    0.5066295452443863 Mg
   0.1194691779872042    0.8784909905914315    0.3711667724486691 Sc
   0.3812980650223580    0.1216381426004112    0.8744282410282698 Sc
   0.3675079827505990    0.3671198094986274    0.6310895156871422 Sc
   0.1204553448561015    0.1215331179017075    0.6287274352495759 Sc
   0.1209945779284508    0.3815294761475770    0.8802531176035554 Sc
   0.3793720580675715    0.6313591248160253    0.3678372433150410 Sc
   0.3848410219580838    0.8733621779949419    0.1295949633671551 Sc
   0.1266987645088305    0.6265481991996151    0.1257438807914144 Sc
   0.6303694015793865    0.8761491239581393    0.8788910521590820 Sc
   0.8781866892593199    0.1261617006766100    0.3754314209062459 Sc
   0.8676203936470217    0.3732015707106990    0.1278581184036736 Sc
   0.6220791819281178    0.1270701856657794    0.1292481030118539 Sc
   0.6227625086182857    0.3809008100681664    0.3663229562257797 Sc
   0.8683075672549166    0.6237739776168927    0.8864449513460945 Sc
   0.8702167482252218    0.8796572714257719    0.6254054108154562 Sc
   0.6188708979997448    0.6249392202664333    0.6315723632604578 Sc
   0.3837055113788145    0.1048122473638224    0.1114917736891419 Se
   0.6188296425512608    0.3842650836566657    0.6172345686565790 Se
   0.6117572392876326    0.1147317304299800    0.8804005466534479 Se
   0.3837715241273019    0.3728869819707753    0.3887729067180396 Se
   0.3664906862192324    0.1223909638956129    0.6394384654749761 Se
   0.1403897813824714    0.8647090777470142    0.1230194631065389 Se
   0.1297529747679647    0.1294092153158855    0.8590419157610538 Se
   0.3684417179354358    0.8580089632986044    0.3771919271395726 Se
   0.3770259271139796    0.6183403299922851    0.6148835163446206 Se
   0.6151312052691738    0.8819464312490886    0.1096002818909772 Se
   0.6183415450682913    0.6172148011495484    0.3806647502722601 Se
   0.3793246925900533    0.8892257926543714    0.8832219387287631 Se
   0.3610715862383496    0.6260376841033796    0.1336654121359974 Se
   0.1315288667019870    0.3655415150518716    0.6356663529786120 Se
   0.1250726177664949    0.6386212490645854    0.3689355747915719 Se
   0.3659819210628540    0.3676037305360190    0.8650860606989358 Se
   0.8839013811990398    0.1086889419254934    0.6257026076690337 Se
   0.1135375456166473    0.3745156199435005    0.1093836433518197 Se
   0.1279011639245127    0.1209896561824613    0.3823602556186166 Se
   0.8779612552452531    0.3766531152453950    0.8808684340260933 Se
   0.8634396221986096    0.1388545158680781    0.1432638305479710 Se
   0.6312571584253998    0.8692712092753221    0.6311045403405545 Se
   0.6305144393543753    0.1407162605278873    0.3687270942268899 Se
   0.8621627908576756    0.8677116923840025    0.8589859966936785 Se
   0.8767516691874715    0.6122535111267442    0.1268433232260405 Se
   0.1194409068774856    0.8843623547069166    0.6193116135395508 Se
   0.1259436293282539    0.6162565148899407    0.8902687638392377 Se
   0.8854833279617677    0.8867392870113880    0.3830553399925346 Se
   0.8612923118791120    0.6386596523695457    0.6289274469147078 Se
   0.6296121588165139    0.3678766410786118    0.1407730383789522 Se
   0.6446110341827753    0.6312710660529831    0.8685152439588433 Se
   0.8671339937506400    0.3671162997078226    0.3671271367637282 Se
