Mg7 Sc16 Se32
1.0
  11.1003847944368736    0.0000000000000000    0.0000000000000000
   0.0000000000000000   11.1003847944368736    0.0000000000000000
  -0.0000000000000000   -0.0000000000000000   11.1003847944368736
Mg Sc Se
7 16 32
direct
   0.4811386804197449    0.9958745532666644    0.5077949232395516 Mg
   0.1966385012691975    0.2398932672607468    0.1839611820886728 Mg
   0.5050264760339773    0.4971418961869963    0.0041411449313996 Mg
   0.7495074850178370    0.2466726489658589    0.7359086179394634 Mg
   0.0007260494254995    0.0014523790645115    0.0049130675823515 Mg
   0.7499874146614076    0.7502597365493356    0.2506735021326549 Mg
   0.0025339855638415    0.4981626480808691    0.4990607672798944 Mg
   0.1303710146348303    0.8755555033863409    0.3698746626044108 Sc
   0.3630655880229425    0.1178323188422761    0.8826799412934671 Sc
   0.3685819427815814    0.3725478908957567    0.6238415137401235 Sc
   0.1047339360400397    0.1263383138125786    0.6321541963218864 Sc
   0.1207876719377541    0.3821103425375224    0.8775250146022565 Sc
   0.3736557537303485    0.6155746434897634    0.3696333144583654 Sc
   0.3882429279730055    0.8701717784469785    0.1367244695306194 Sc
   0.1254621327276878    0.6269813226554131    0.1231732418238608 Sc
   0.6283151308149187    0.8709388313738998    0.8742134804585582 Sc
   0.8696293333136267    0.1126700486338666    0.3790157630375746 Sc
   0.8700929271475680    0.3766765895650045    0.1252230199217217 Sc
   0.6362013315814170    0.1443966692296343    0.1268077520097395 Sc
   0.6367299267324660    0.3823873270183116    0.3663954671053260 Sc
   0.8756080290770797    0.6241983268505493    0.8734071496642601 Sc
   0.8759475709613008    0.8789362196483652    0.6218258336310242 Sc
   0.6270554790910212    0.6383828360201811    0.6360934500846042 Sc
   0.3998750106233143    0.1126655339085038    0.1204445906860193 Se
   0.6186084665639400    0.3816599388238749    0.6219687632169439 Se
   0.6160633958869456    0.1179462006200000    0.8829209084980858 Se
   0.3843815549334358    0.3780018696505239    0.3868393711069903 Se
   0.3797276781520618    0.1382361678143485    0.6235514515928257 Se
   0.1296628793186837    0.8767608510658736    0.1252437664713505 Se
   0.1402078330120725    0.1173619177212559    0.8762524357559843 Se
   0.3710979527010104    0.8579649151376062    0.3700008843135993 Se
   0.3776109153472130    0.6106241719693426    0.6157919169788302 Se
   0.6159548995432150    0.8821836794410063    0.1171830565521415 Se
   0.6168053795225188    0.6161015148501120    0.3823661851570714 Se
   0.3885394455700789    0.8903760712335408    0.8738137008271648 Se
   0.3646236968915681    0.6298654028783045    0.1371496817528038 Se
   0.1380898951210080    0.3662517301449337    0.6425385256440259 Se
   0.1326967584708708    0.6376290272695750    0.3522811089539877 Se
   0.3588226538653116    0.3711369487464143    0.8848303037715091 Se
   0.8890190930723502    0.1213466944983755    0.6263850336126882 Se
   0.1235880542519972    0.3793503336018892    0.1121338134412010 Se
   0.1217165313326481    0.1178621840594030    0.3836089053243977 Se
   0.8685912747176843    0.3846949419528315    0.8787960273691826 Se
   0.8796193369403442    0.1261795732498634    0.1432822032911986 Se
   0.6389826042921477    0.8599915288377566    0.6345245548821021 Se
   0.6356178089778534    0.1343648244030295    0.3772158444853987 Se
   0.8603274715421184    0.8755463222169645    0.8624522831526275 Se
   0.8826929944861774    0.6145112194369854    0.1169938193523960 Se
   0.1143961719632209    0.8896051978214202    0.6201894492319450 Se
   0.1178190243138998    0.6178594677945978    0.8823210564581225 Se
   0.8748693968241702    0.8754763261945745    0.3800922617461553 Se
   0.8677027928850706    0.6259372491885880    0.6539597606731913 Se
   0.6185387238296520    0.3783596754017768    0.1240935998630531 Se
   0.6303600064135394    0.6440378689503450    0.8751443565879804 Se
   0.8741091888353008    0.3871948744773837    0.3630377402162565 Se
