Mg7 Sc16 Se32
1.0
  11.1003847944368736    0.0000000000000000    0.0000000000000000
   0.0000000000000000   11.1003847944368736    0.0000000000000000
  -0.0000000000000000   -0.0000000000000000   11.1003847944368736
Mg Sc Se
7 16 32
direct
   0.2540925128321135    0.1943815982517164    0.3056066085079090 Mg
   0.2528787818070691    0.7516480335012942    0.7474488457752591 Mg
   0.5000590473003845    0.5018062903443922    0.9993263283153134 Mg
   0.7508753992924446    0.2506587106635541    0.7495897635929519 Mg
   0.9989986926171727    0.9980129891587375    0.9976415711124687 Mg
   0.7532208058403658    0.7503215094154851    0.2476774379798029 Mg
   0.9994048150876090    0.5043275384914840    0.4989429876869442 Mg
   0.1254736276538432    0.8720574993810196    0.3737213032450957 Sc
   0.3737446722439680    0.1234806343422555    0.8751668372618862 Sc
   0.3779661299017467    0.3763873763138638    0.6257447717919689 Sc
   0.1250936937992977    0.1262071744419951    0.6255319500347543 Sc
   0.1239833979516297    0.3729118876807901    0.8743412448549650 Sc
   0.3771826891771614    0.6285695813436809    0.3740839791410711 Sc
   0.3775839858129350    0.8719689974834873    0.1239675405137728 Sc
   0.1244242659417881    0.6253738517681900    0.1239598280555442 Sc
   0.6237106519172418    0.8743325265272913    0.8751873447105182 Sc
   0.8738675676230372    0.1245612673505306    0.3753935389818870 Sc
   0.8774900832037215    0.3742282784279554    0.1238696163832081 Sc
   0.6263600869109019    0.1243965251694952    0.1249272092205695 Sc
   0.6249642442282294    0.3748411147304649    0.3749683796946409 Sc
   0.8789049656928244    0.6261092667823608    0.8756965680061519 Sc
   0.8754098792604197    0.8750342102527749    0.6252445285633695 Sc
   0.6239975295370143    0.6245685257176992    0.6275441019605418 Sc
   0.3826303839275777    0.1177239070647675    0.1180528608494870 Se
   0.6204312405456910    0.3851492730888140    0.6181786455153701 Se
   0.6172502437038045    0.1189669889181494    0.8828012948653118 Se
   0.3819170191879400    0.3830427636430545    0.3847459691655917 Se
   0.3674035180768336    0.1327955878917143    0.6330149487320239 Se
   0.1349106370341867    0.8636671031715697    0.1327965375151632 Se
   0.1318507769469718    0.1353165153632682    0.8672926840979855 Se
   0.3689992161923991    0.8671578947846753    0.3694354760187568 Se
   0.3828560216551970    0.6171890099285631    0.6181104554935161 Se
   0.6204757834811552    0.8815286281277911    0.1156239270667785 Se
   0.6147299747727631    0.6154088060897254    0.3831800182416223 Se
   0.3828857247905403    0.8810558711117800    0.8818954636274449 Se
   0.3666735077727842    0.6367541857288286    0.1329335592718856 Se
   0.1348385135459761    0.3680068608705774    0.6298435485858788 Se
   0.1331061305313528    0.6329490135659001    0.3650826617107174 Se
   0.3701982517335606    0.3663915802436791    0.8661693014805837 Se
   0.8826027050507564    0.1166936785116124    0.6174771297132041 Se
   0.1181805546218617    0.3808405604083173    0.1154008976938818 Se
   0.1200113245464680    0.1174114496569469    0.3855299645957566 Se
   0.8814627234310192    0.3840576574098028    0.8838141454898677 Se
   0.8679264766112317    0.1324136299038242    0.1327751134594323 Se
   0.6309785137643668    0.8647852697997659    0.6309416516898710 Se
   0.6323431432187606    0.1329107183267546    0.3705898869656918 Se
   0.8667429358289523    0.8649884625501941    0.8691360920759099 Se
   0.8840818417802294    0.6173868325644191    0.1160849093574894 Se
   0.1173296379611666    0.8829289229119850    0.6167982340518802 Se
   0.1149952398793582    0.6194452055625349    0.8821676167664849 Se
   0.8842109730579751    0.8823535116912578    0.3811544499367258 Se
   0.8634873373516732    0.6313484080242358    0.6343404334422651 Se
   0.6331727570058375    0.3673725376644074    0.1334722618872205 Se
   0.6341138327849242    0.6324763226796162    0.8684225473263787 Se
   0.8690332744014949    0.3642671027467079    0.3648090089074040 Se
