Mg7 Sc16 Se32
1.0
  11.1003847944368736    0.0000000000000000    0.0000000000000000
   0.0000000000000000   11.1003847944368736    0.0000000000000000
  -0.0000000000000000   -0.0000000000000000   11.1003847944368736
Mg Sc Se
7 16 32
direct
   0.5019662420103383    0.0108937846879285    0.5037812195622489 Mg
   0.2554953030829445    0.7468836024283589    0.7464366662668205 Mg
   0.5092720158010553    0.5014331370844876    0.0059574582405753 Mg
   0.7462465500953949    0.2523828416487401    0.7487742250024177 Mg
   0.0677027177036963    0.0555752586248933    0.0841895881201175 Mg
   0.7477757892481838    0.7525254978934705    0.2472251060779984 Mg
   0.0006157070742251    0.5009242116367416    0.5001996080886451 Mg
   0.1268684813698642    0.8705905600440209    0.3761032936559036 Sc
   0.3760873545532609    0.1199008763803822    0.8799925004631561 Sc
   0.3770993557015308    0.3760751212736468    0.6204887971699562 Sc
   0.1252006212381606    0.1253909062631768    0.6249667044386337 Sc
   0.1252701296198213    0.3751026163775156    0.8751289796181839 Sc
   0.3698518652966725    0.6254299586794538    0.3686134555052551 Sc
   0.3697044296292624    0.8762214277907363    0.1300170638332312 Sc
   0.1310849043992500    0.6277005265096045    0.1283136261391720 Sc
   0.6235829469848525    0.8759678174641173    0.8773644288369130 Sc
   0.8719146200876959    0.1247008479440109    0.3709689586800410 Sc
   0.8763060662943594    0.3841029232218541    0.1236812229066649 Sc
   0.6278211926100806    0.1205086346770010    0.1247641019355623 Sc
   0.6266980970663725    0.3704357231914955    0.3833236891586949 Sc
   0.8783542576955506    0.6224865203142776    0.8761151886401652 Sc
   0.8750110086303879    0.8750031462231250    0.6266133389954655 Sc
   0.6258705478187812    0.6270531969982303    0.6207357683368133 Sc
   0.3860047248751127    0.1156345978751056    0.1256053782828591 Se
   0.6178146209036358    0.3803905678608564    0.6145746353872801 Se
   0.6204750975325503    0.1135754550110213    0.8824440047639173 Se
   0.3715660723252812    0.3822663225316956    0.3871876377576863 Se
   0.3663694385841884    0.1344593836904733    0.6311727249546902 Se
   0.1335219744401566    0.8702049946493176    0.1241858220354992 Se
   0.1315277576458204    0.1320285193611727    0.8668079725564549 Se
   0.3679183064151545    0.8656384033963879    0.3710008348933768 Se
   0.3794946619117579    0.6151504468275909    0.6306693518102960 Se
   0.6153326125741767    0.8747123159176606    0.1064461007333895 Se
   0.6219472454164691    0.6201765551548195    0.3724737567825940 Se
   0.3830180381639322    0.8842272553443258    0.8837865421771893 Se
   0.3666188276035869    0.6335155936943244    0.1321221536255026 Se
   0.1415645364392045    0.3680321976931211    0.6393747149475607 Se
   0.1285266262350649    0.6336347422486204    0.3760348434832579 Se
   0.3643789624458110    0.3641131342369631    0.8699638096395819 Se
   0.8895166153580411    0.1172148925076660    0.6101179092319557 Se
   0.1159113251279847    0.3910502688189168    0.1067636730515646 Se
   0.1153944741784391    0.1184603877072225    0.3867357938233935 Se
   0.8849307322027922    0.3828218391537868    0.8940540129968283 Se
   0.8675445276313540    0.1352700648587829    0.1323548704830198 Se
   0.6321354257188289    0.8685640899886605    0.6360079615927408 Se
   0.6333927018570852    0.1328283834674219    0.3661093949412267 Se
   0.8568205619763777    0.8588925081528804    0.8709237489326510 Se
   0.8813049801812061    0.6194889996251518    0.1053635605178316 Se
   0.1165185027781918    0.8819208913246187    0.6216912309089226 Se
   0.1127861210384311    0.6224823046996661    0.8775781936796917 Se
   0.8762719012711359    0.8779971887958351    0.3787170877141647 Se
   0.8776675177769220    0.6291566785028466    0.6392069540262455 Se
   0.6234427779669612    0.3692563954797244    0.1334589404405537 Se
   0.6342253730826833    0.6394209268381597    0.8586483943057878 Se
   0.8614984097605534    0.3717869164630733    0.3716682531170378 Se
