Mg7 Sc16 Se32
1.0
  11.1003847944368736    0.0000000000000000    0.0000000000000000
   0.0000000000000000   11.1003847944368736    0.0000000000000000
  -0.0000000000000000   -0.0000000000000000   11.1003847944368736
Mg Sc Se
7 16 32
direct
   0.4800546167862411    0.9972110037927558    0.4914721542963345 Mg
   0.2545567860912341    0.7482186668902739    0.7483008957271760 Mg
   0.5162700686974090    0.4828688526722745    0.9869266188512971 Mg
   0.7465674838797081    0.2391706271983028    0.7428902304679486 Mg
   0.2633177226789068    0.2436734723703910    0.2478538082533804 Mg
   0.7505509004522302    0.7588221440563284    0.2494469668858980 Mg
   0.9938463223898634    0.4839409325065276    0.5182835300880203 Mg
   0.1274565216446496    0.8657907263019614    0.3901922963459904 Sc
   0.3806613083614869    0.1051122289938931    0.8852042549840100 Sc
   0.3731763132321467    0.3731405942543168    0.6226308418772915 Sc
   0.1356058570612782    0.1249904822942470    0.6126722762624092 Sc
   0.1215526692226244    0.3838357580176249    0.8709892581739288 Sc
   0.3849069389244185    0.6474715339284600    0.3858148576981419 Sc
   0.3976737840461995    0.8860895424869988    0.1173704066507884 Sc
   0.1298970262636323    0.6270784004460241    0.1193984436876273 Sc
   0.6178593677869869    0.8697256246828234    0.8702402669559437 Sc
   0.8872857685508525    0.1145736549618918    0.3680377219567159 Sc
   0.8772459262398562    0.3720377131888943    0.1238819407007721 Sc
   0.6250893405031743    0.1248140729334601    0.1241161805999543 Sc
   0.6180789116849550    0.3735540787761819    0.3673699789846532 Sc
   0.8643916081772676    0.6206737797217948    0.8510963934551086 Sc
   0.8791654673685176    0.8740502249474388    0.6260927748800105 Sc
   0.6245264609437339    0.6333450736169013    0.6232440064706094 Sc
   0.3871274292485741    0.1255331927795471    0.1277814550418347 Se
   0.6298108950353293    0.3942088277829918    0.6224943974233460 Se
   0.6248348209189137    0.1159534588846489    0.8917492304782157 Se
   0.3831515543029475    0.3819330950798735    0.3873803249708525 Se
   0.3702813157368328    0.1406300235515812    0.6369546430969266 Se
   0.1342937022898452    0.8704831827672620    0.1255760533361413 Se
   0.1336078001374594    0.1326669317786891    0.8661650407100188 Se
   0.3554879856301502    0.8652458548106907    0.3589477957412796 Se
   0.3824845766824150    0.6163802872384363    0.6165225307945190 Se
   0.6170138855427845    0.8990911001811170    0.1111539317695332 Se
   0.5963563579047819    0.6271985912364474    0.3791968685039383 Se
   0.3831305196845378    0.8833747952081886    0.8835754590335219 Se
   0.3712932146973615    0.6338450507226882    0.1217989568349386 Se
   0.1347751090121657    0.3675824296664907    0.6301801419003528 Se
   0.1264748487061786    0.6158782153054264    0.3627862354400170 Se
   0.3692772128385468    0.3630061138673337    0.8638575870918641 Se
   0.8833265919794078    0.1168591177879921    0.6167028495911729 Se
   0.1027613908374462    0.3763190394511757    0.0986211493033723 Se
   0.1258979596111648    0.1160742066745867    0.4045326978091637 Se
   0.8779993676275992    0.3926610184887993    0.8887267045404006 Se
   0.8623766373187701    0.1237496917704273    0.1167036526293232 Se
   0.6310739236058174    0.8667074788242086    0.6326183718885171 Se
   0.6403970493032015    0.1122938420306822    0.3780226721837363 Se
   0.8753269422300626    0.8464828888863953    0.8687341353298382 Se
   0.8772354549158307    0.6088394759448725    0.1234750744512857 Se
   0.1252538235889859    0.8798502282532707    0.6187636554280639 Se
   0.0953018107369065    0.6188999306949682    0.8986586849658267 Se
   0.8885905104007378    0.8728020810583190    0.3771581095461736 Se
   0.8671209761338973    0.6355686664617136    0.6301227293181041 Se
   0.6452139064181676    0.3621917985940174    0.1105058970462858 Se
   0.6295699588868645    0.6195650971646424    0.8685297335712697 Se
   0.8775301868812412    0.3751571059984145    0.3731490655834674 Se
