Mg7 Sc16 Se32
1.0
  11.1003847944368736    0.0000000000000000    0.0000000000000000
   0.0000000000000000   11.1003847944368736    0.0000000000000000
  -0.0000000000000000   -0.0000000000000000   11.1003847944368736
Mg Sc Se
7 16 32
direct
   0.5029623235879868    0.0101895868926810    0.4947867816109436 Mg
   0.2477052982303381    0.7496033890774961    0.7472723050961253 Mg
   0.5005014250598717    0.4847610424414509    0.9875420379226815 Mg
   0.7465876900153012    0.2638600052924008    0.7389330503864202 Mg
   0.9960242942350327    0.9998906599088671    0.0018356137804227 Mg
   0.7581620312370678    0.7557426576887728    0.2479421068295659 Mg
   0.0012138732142797    0.5063141316867893    0.5057672471370833 Mg
   0.1249055853858032    0.8718707402832504    0.3671483261581994 Sc
   0.3709042269554634    0.1398726772919352    0.8808212470136475 Sc
   0.3794823415797997    0.3852877841823972    0.6352719594112730 Sc
   0.1266868666372880    0.1290600655496500    0.6229713089969819 Sc
   0.1401336251735833    0.3694749860934621    0.8650934181354035 Sc
   0.3703841479151882    0.6438424027747059    0.3764627285771718 Sc
   0.3769152001407352    0.8733881874619407    0.1259152979499769 Sc
   0.1275425247132878    0.6259361884480779    0.1256009105978330 Sc
   0.6240384444237581    0.8806429984912227    0.8767746111674810 Sc
   0.8853696628944501    0.1240997277646001    0.3802128751998114 Sc
   0.8825508324823415    0.3719489817692385    0.1260845521368766 Sc
   0.6282769374413893    0.1363696534386447    0.1268673161988009 Sc
   0.6314725767086602    0.3931775762485025    0.3693021246838211 Sc
   0.8716947116110886    0.6289631928064342    0.8762922721796045 Sc
   0.8713547465251353    0.8762225057400231    0.6200190229185800 Sc
   0.6223802750790725    0.6181460661632789    0.6411593290610881 Sc
   0.3750414605591956    0.1200256115449269    0.1142201323338477 Se
   0.6100611198914856    0.3885647061783152    0.6257379186699816 Se
   0.6171118999690789    0.1180993350361870    0.8885530718920216 Se
   0.3859896811478871    0.3809002018967119    0.3791488797472308 Se
   0.3602812934556693    0.1338067576363180    0.6288437758644772 Se
   0.1398594027273602    0.8772709474020940    0.1233200998129469 Se
   0.1466660997768046    0.1330690714918764    0.8808777980352200 Se
   0.3507426465208171    0.8737744628545208    0.3685993535326780 Se
   0.3754260934235564    0.6197608952515652    0.6092710902414951 Se
   0.6138474263892170    0.8855004638945653    0.1232639682179216 Se
   0.6173171627004527    0.6177598246335059    0.3822268847800724 Se
   0.3918474364381986    0.8793816682282313    0.8940515848244046 Se
   0.3693478712217744    0.6323877351180770    0.1348709131354204 Se
   0.1330058144509533    0.3668188481749437    0.6332742665114889 Se
   0.1250762509624896    0.6513115685397151    0.3680377732733786 Se
   0.3731605410051423    0.3700140068963813    0.8742676752350057 Se
   0.8819357909337335    0.1149374769884513    0.6146183472084445 Se
   0.1184034141064988    0.3839586039482620    0.1158961534497240 Se
   0.1172878114426862    0.1064645300247810    0.3902708855809831 Se
   0.8849621409187689    0.3738412215586795    0.8822279542856979 Se
   0.8830230499402402    0.1250850095811651    0.1303211309233467 Se
   0.6373359348551634    0.8698419458539265    0.6288190817815891 Se
   0.6411489499893570    0.1331931597755010    0.3493383563963718 Se
   0.8797565511934827    0.8602015067711426    0.8644817446959033 Se
   0.8857327378718863    0.6163749336304623    0.1205886544151093 Se
   0.1059086728368385    0.8724938668595470    0.6040377440717892 Se
   0.1233885194917240    0.6124438518994481    0.8947155106238092 Se
   0.8720507442637210    0.8835073878274681    0.3880546947864904 Se
   0.8720543980645939    0.6308283150057152    0.6268031897633664 Se
   0.6163288491185239    0.3683134303442072    0.1372222119577324 Se
   0.6165743430020251    0.6299133538705814    0.8567547277597947 Se
   0.8620583715672472    0.3666087846179397    0.3709690251791172 Se
