Mg7 Sc16 Se32
1.0
  11.1003847944368736    0.0000000000000000    0.0000000000000000
   0.0000000000000000   11.1003847944368736    0.0000000000000000
  -0.0000000000000000   -0.0000000000000000   11.1003847944368736
Mg Sc Se
7 16 32
direct
   0.5055675266650554    0.9913054150951166    0.5050287085134536 Mg
   0.2520797123364924    0.7306682263474146    0.7544309350514971 Mg
   0.1345669770537188    0.2549344434847912    0.2233499639077122 Mg
   0.7504292382850494    0.2499769733118410    0.7493475591070466 Mg
   0.0164954327009374    0.0086200444442815    0.9987596303997437 Mg
   0.7557262180525054    0.7531707193882750    0.2387463187556569 Mg
   0.0214546408008510    0.5060733853048225    0.5130893001054158 Mg
   0.1226002410085561    0.8743301779683508    0.3734108799487025 Sc
   0.3843614417412392    0.1323421330916151    0.8890074966292600 Sc
   0.3701364454749380    0.3783854098357896    0.6250943851646829 Sc
   0.1202809033161729    0.1169859262271535    0.6179524873064718 Sc
   0.1246507950031068    0.3759686702204663    0.8738673428739089 Sc
   0.3763386577315429    0.6224465515958428    0.3824239158843606 Sc
   0.3721779193608257    0.8615946242870819    0.1415275580138123 Sc
   0.1391427489184006    0.6375070549248913    0.1333919269933138 Sc
   0.6236022856293634    0.8661881807184653    0.8808121831024918 Sc
   0.8745007862332377    0.1263234200772052    0.3817240920153068 Sc
   0.8826711171633118    0.3621638499124669    0.1276667406770082 Sc
   0.6102230056322758    0.1068472932940631    0.1175655995580405 Sc
   0.6141290239547079    0.3755734644913991    0.3793438239825459 Sc
   0.8728401412881537    0.6393599399620006    0.8664564202967510 Sc
   0.8638280273899429    0.8816832771646552    0.6320242827664744 Sc
   0.6282701318173612    0.6209357766308907    0.6194729511787769 Sc
   0.3870983403502095    0.1108920519253912    0.1128700454129398 Se
   0.6119931905386569    0.3979783714504382    0.6149761485309803 Se
   0.6176119640124547    0.1148594630282327    0.8856893145471471 Se
   0.3840125727893374    0.3808417150621081    0.3933239663815192 Se
   0.3624462113872711    0.1347881297486729    0.6090015081589825 Se
   0.1335620350334388    0.8671309329547100    0.1322177104453613 Se
   0.1349751891171023    0.1220886746581616    0.8685372638165296 Se
   0.3633645337693875    0.8664100975115713    0.3654055513507501 Se
   0.3843843272580366    0.6176514925223662    0.6166616553155776 Se
   0.6172713284872751    0.8826333934467865    0.1175816930373396 Se
   0.6122875342577144    0.6086162219986769    0.3905748328522781 Se
   0.3764276762634532    0.8778416995907790    0.8692910858475841 Se
   0.3768071363084690    0.6153077208183018    0.1346070348310543 Se
   0.1405156364226927    0.3670805342093352    0.6333542506528144 Se
   0.1244238200440297    0.6237256285454076    0.3762989903324351 Se
   0.3696541041993499    0.3413446951753448    0.8720084416650864 Se
   0.8745969671170770    0.1239706956314802    0.6291241020980910 Se
   0.1121272845349416    0.3870895456785296    0.1128760807373105 Se
   0.1012431511358972    0.1017436470150471    0.3715210030873091 Se
   0.8738586072155885    0.3781568124908574    0.8826299482254991 Se
   0.8569909589245056    0.1362065895041377    0.1446774668668789 Se
   0.6326078760034638    0.8800999071696807    0.6447225329669588 Se
   0.6327004210922560    0.1329390541262096    0.3652605703770238 Se
   0.8735316238031702    0.8692244445132061    0.8603332360968053 Se
   0.8760344811752830    0.6176090015465984    0.1054397159526040 Se
   0.1141212339304360    0.8999694919604976    0.6191932642784164 Se
   0.1206672896021740    0.6223944152329156    0.8826943585248973 Se
   0.8831154380442257    0.8830290335937169    0.3810008858824495 Se
   0.8637789249401479    0.6410774239518677    0.6367244302461260 Se
   0.6319945403078051    0.3653847190780816    0.1443649899127060 Se
   0.6290922310451547    0.6329893366887844    0.8685311345992265 Se
   0.8651771211441531    0.3709146314230977    0.3653744118276256 Se
