Mg7 Sc16 Se32
1.0
  11.1003847944368736    0.0000000000000000    0.0000000000000000
   0.0000000000000000   11.1003847944368736    0.0000000000000000
  -0.0000000000000000   -0.0000000000000000   11.1003847944368736
Mg Sc Se
7 16 32
direct
   0.5012595229233815    0.9975811463485096    0.4994012155837282 Mg
   0.2521004180747712    0.7448067074478643    0.7646184510080495 Mg
   0.5086477385227725    0.4829432239116920    0.9926704105223928 Mg
   0.7502190143051217    0.2498973475169287    0.7498273426677412 Mg
   0.0036064309725777    0.0124004364914109    0.9855813986221527 Mg
   0.7506750771506272    0.7506547117618674    0.2506874571356267 Mg
   0.2012654973271655    0.2246137622869619    0.1873349294493588 Mg
   0.1274552725467770    0.8815354282399046    0.3735126045201080 Sc
   0.3668274097802062    0.1155661589478961    0.8769642519208197 Sc
   0.3749312171943320    0.3811682490223166    0.6455332998584414 Sc
   0.1179997569288368    0.1117267395931140    0.6212122574735935 Sc
   0.1250527747472012    0.3787813194443835    0.8758909431593543 Sc
   0.3797581205979286    0.6383399491641107    0.3859045453476636 Sc
   0.3748768323381708    0.8749082083038553    0.1239332309661205 Sc
   0.1247024744838645    0.6246847888311249    0.1247133230330793 Sc
   0.6295307780979068    0.8741876729215973    0.8696545257429613 Sc
   0.8851378824242093    0.1279549741934707    0.3645134803566226 Sc
   0.8758550343882876    0.3846291906037705    0.1329552372221308 Sc
   0.6363373085933431    0.1145832724955219    0.1265701889281342 Sc
   0.6220371749021627    0.3748074757008380    0.3754334618750725 Sc
   0.8591105468159691    0.6101975909822972    0.8718818140843164 Sc
   0.8750681188131340    0.8774727438787061    0.6259651312680746 Sc
   0.6176101642155192    0.6217299631533099    0.6274745195041794 Sc
   0.3847159554233679    0.1207493260711059    0.1163380234103041 Se
   0.6158291499676872    0.3864192146477736    0.6068252697067399 Se
   0.6273329016295062    0.1250552129522449    0.8912259984127444 Se
   0.3754786120121036    0.3954278073775204    0.3896277310404026 Se
   0.3524790390131634    0.1440321908985810    0.6394109776076915 Se
   0.1329477317404660    0.8669666817621008    0.1329639567937597 Se
   0.1199918103280517    0.1336759491434062    0.8654975492227155 Se
   0.3680318232540211    0.8676951935255683    0.3651592151416128 Se
   0.3763978262844773    0.6121035513480005    0.6154479156855766 Se
   0.6251461261558101    0.8679775713046889    0.1247422785471067 Se
   0.6175102389073288    0.6223124900688417    0.4057333944676924 Se
   0.3792408038825014    0.9004513811205938    0.8857653931837294 Se
   0.3671840034142909    0.6135689742100353    0.1213910641428584 Se
   0.1382343158791023    0.3607316414375239    0.6283235265701135 Se
   0.1384606640135183    0.6293082003881555    0.3682160306283526 Se
   0.3720590889291358    0.3741600926893945    0.8647047900286350 Se
   0.8861927527844623    0.1140901428496870    0.6157021262626723 Se
   0.1240784717760459    0.4014474093197503    0.1278794495106248 Se
   0.0948426429466712    0.1131741805250568    0.3794437880044125 Se
   0.8841197365416764    0.3777793760468203    0.8722673701946914 Se
   0.8671945790703258    0.1267296266094215    0.1332259161040263 Se
   0.6325811535416656    0.8670694540446496    0.6330275169516042 Se
   0.6326326683230543    0.1356367859509651    0.3665522853646879 Se
   0.8630760535127217    0.8566581529100730    0.8727230780151675 Se
   0.8860907702143782    0.6211924530690998    0.1093101331128513 Se
   0.1277976061899706    0.8792778870251672    0.6172812779565939 Se
   0.1268153359133122    0.6295499411491833    0.8741622986700709 Se
   0.8771641521144808    0.8719782174651174    0.3723408008004444 Se
   0.8727588739276069    0.6315185454139898    0.6362903322500558 Se
   0.6353332755781166    0.3707170511711838    0.1162502181621666 Se
   0.6332773015293331    0.6237371740732842    0.8624680417655336 Se
   0.8713751695882078    0.3708804643300099    0.3656243341916618 Se
