Mg7 Sc16 Se32
1.0
  11.1003847944368736    0.0000000000000000    0.0000000000000000
   0.0000000000000000   11.1003847944368736    0.0000000000000000
  -0.0000000000000000   -0.0000000000000000   11.1003847944368736
Mg Sc Se
7 16 32
direct
   0.4940775906568519    0.0044109852908445    0.4949091775350495 Mg
   0.2525251234663900    0.7695766417416446    0.7453411193327674 Mg
   0.4980362074028882    0.4967820788977994    0.9915943774047706 Mg
   0.7397073084522930    0.2537236011733006    0.7540426027506831 Mg
   0.9999151948728079    0.0016083048278600    0.0018555092926919 Mg
   0.7613976713620326    0.7608606237733565    0.2412490951538345 Mg
   0.2573802027078085    0.2327425963826385    0.2097030404471337 Mg
   0.1242396714043037    0.8755958860519155    0.3723489151772004 Sc
   0.3750619801215980    0.1344868111017106    0.8745479224057876 Sc
   0.3720780224988707    0.3773034396795472    0.6154591853224392 Sc
   0.1157793715002275    0.1287449590860232    0.6358540123842490 Sc
   0.1271477446644708    0.3590910268810245    0.8780536998797119 Sc
   0.3633583497415701    0.6371253744115034    0.3747952667974094 Sc
   0.3847042757485155    0.8613709895528980    0.1275549361122982 Sc
   0.1290306219869823    0.6254104607537108    0.1226422990022736 Sc
   0.6290242258515573    0.8813797567130818    0.8744648908301486 Sc
   0.8792127293682591    0.1276006983693366    0.3715501577669145 Sc
   0.8728340304442562    0.3736219304530798    0.1142073468306325 Sc
   0.6237414855087805    0.1297246812574211    0.1261081347858697 Sc
   0.6195629708617908    0.3582277141184855    0.3814644260084233 Sc
   0.8797510993963273    0.6220705166994251    0.8771228941283798 Sc
   0.8748832386591242    0.8747460474967305    0.6253390122285187 Sc
   0.6220395727168428    0.6260734219588511    0.6248868575901209 Sc
   0.3835134393624396    0.1219018389033879    0.1106399623993395 Se
   0.6165507956356850    0.3714686744678862    0.6187519081089293 Se
   0.6051002553486482    0.1170846597252377    0.8771830496202564 Se
   0.3862178841239675    0.3756099925854855    0.3821279222050355 Se
   0.3782484150095002    0.1238117572364698    0.6304546566144743 Se
   0.1352904267015271    0.8658976778338078    0.1393977291875168 Se
   0.1340978979388620    0.1347724975670316    0.8707946763359667 Se
   0.3563487119118312    0.8643121893943186    0.3707008100834101 Se
   0.3850097295644089    0.6068614490427847    0.6051870650039480 Se
   0.6148352382911487    0.8768100904819368    0.1224586692742269 Se
   0.6187160971044061    0.6168665503486610    0.3831675820454248 Se
   0.3859868433882508    0.8730978061998228    0.8677951261704839 Se
   0.3665520866937329    0.6146719871584639    0.1364361854530933 Se
   0.1247082006937643    0.3684564382722977    0.6288705423520163 Se
   0.1350858992883175    0.6361529421859184    0.3688826058689851 Se
   0.3729160646485463    0.3710647309251942    0.8704313099951465 Se
   0.8742368820605246    0.1198117002736324    0.6144850022719771 Se
   0.1133220700699215    0.3954214233968049    0.1181180982431905 Se
   0.1140845845763145    0.1124316598680098    0.3641243494447883 Se
   0.8892416135377791    0.3870470755469785    0.8762107929254994 Se
   0.8712491005644830    0.1294301050601392    0.1373666957912869 Se
   0.6279887436145047    0.8660327721413359    0.6287054346662572 Se
   0.6333076927807847    0.1336449505568480    0.3678091987749891 Se
   0.8570327784609211    0.8673854638743945    0.8613795927022502 Se
   0.8955773042874872    0.6155580140393493    0.1139820322524301 Se
   0.1074908461433814    0.8844708088005427    0.6281013294083645 Se
   0.1247488004376194    0.6201518271758033    0.8732852274747289 Se
   0.8907122454521421    0.8905487500978296    0.3655178613937523 Se
   0.8548301303138572    0.6237159774093389    0.6428291544213650 Se
   0.6192625932169560    0.3556243362566152    0.1408206721080073 Se
   0.6353805140516606    0.6313446122362371    0.8693689904371908 Se
   0.8770341631258668    0.3772733972738331    0.3633350321513575 Se
