Mg7 Sc16 Se32
1.0
  11.1003847944368736    0.0000000000000000    0.0000000000000000
   0.0000000000000000   11.1003847944368736    0.0000000000000000
  -0.0000000000000000   -0.0000000000000000   11.1003847944368736
Mg Sc Se
7 16 32
direct
   0.4964859252379983    0.9970659275255356    0.4942128590636535 Mg
   0.2497771051397595    0.7493920734000673    0.7479942870250731 Mg
   0.2525766107022028    0.2470739509111676    0.2482738357832515 Mg
   0.7489450489979645    0.2473568675857012    0.7514917801923282 Mg
   0.9981542765014685    0.0015853728473495    0.9955735415793061 Mg
   0.7503563979313446    0.7448510314401139    0.2489453775235541 Mg
   0.9985675937890338    0.5012537710338222    0.4956088007985595 Mg
   0.1239011326877290    0.8751688416437551    0.3739084184196921 Sc
   0.3756390985708202    0.1248005011353908    0.8797305560324805 Sc
   0.3739426312504227    0.3728952228679330    0.6201715858834959 Sc
   0.1249630284421169    0.1289200340041221    0.6278216075195380 Sc
   0.1249724978805352    0.3760817476834022    0.8755619146995840 Sc
   0.3717806957811273    0.6294870503661587    0.3740579506147457 Sc
   0.3733208481775936    0.8769429741640490    0.1244104942503372 Sc
   0.1228029686939641    0.6292680390574779    0.1270578010555249 Sc
   0.6231975192614791    0.8757404748196176    0.8737695698818075 Sc
   0.8754472714726025    0.1262869939641602    0.3761161706527782 Sc
   0.8749382603524009    0.3749515010891105    0.1249867276669842 Sc
   0.6241151645863434    0.1249800073042591    0.1254191400234480 Sc
   0.6308710867952941    0.3788573616646302    0.3752425137031101 Sc
   0.8749897126150711    0.6246434519634603    0.8741464671240325 Sc
   0.8726390058141537    0.8743444686046549    0.6290687120903673 Sc
   0.6264462238638721    0.6218380220673287    0.6237916086918341 Sc
   0.3828790551592461    0.1171141971989262    0.1170631710085197 Se
   0.6162869047573930    0.3798016033833785    0.6164851816187069 Se
   0.6116831234867587    0.1172456514695526    0.8805779256808589 Se
   0.3820577120104179    0.3835629190421824    0.3760184226401632 Se
   0.3666939731450911    0.1309109039417727    0.6345275062091008 Se
   0.1318774786314370    0.8650056522027577    0.1345913775819327 Se
   0.1296565672017083    0.1326937685951740    0.8648655872096093 Se
   0.3682890000472384    0.8676593187367420    0.3654688647560159 Se
   0.3828031202303953    0.6170725782691850    0.6174765011959030 Se
   0.6165349817923498    0.8860998648573649    0.1202588351598663 Se
   0.6169941941888515    0.6184327416611161    0.3806180828778387 Se
   0.3845558779223201    0.8834261555049880    0.8835919997486642 Se
   0.3671260925682028    0.6329622344619404    0.1330117341143499 Se
   0.1297033809897763    0.3654401096800142    0.6348548922180481 Se
   0.1380451270952434    0.6308203840200566    0.3702151269029197 Se
   0.3674930170915963    0.3636837275466057    0.8711499544340893 Se
   0.8829563155397580    0.1182335898339154    0.6156845479312081 Se
   0.1173591307361943    0.3823409937089804    0.1168672206405066 Se
   0.1161484658780036    0.1166844065712230    0.3763327080564551 Se
   0.8816481587387344    0.3845119715795514    0.8822295335925100 Se
   0.8660501443347427    0.1281302161366980    0.1310602671184202 Se
   0.6336721303989906    0.8660108856430950    0.6266695620996032 Se
   0.6350811966059818    0.1335942212453393    0.3675222688726115 Se
   0.8694173845691286    0.8647579403888609    0.8668017060341435 Se
   0.8814206991828271    0.6170413944072127    0.1164892086643988 Se
   0.1136387171324271    0.8824979305492361    0.6146294469529060 Se
   0.1185059996391593    0.6181622461304470    0.8825345047810245 Se
   0.8850500999482876    0.8820358396020097    0.3846216165546570 Se
   0.8675465863435863    0.6329821242305290    0.6285889318688869 Se
   0.6341072981092062    0.3689646081744689    0.1342545055300575 Se
   0.6366034518056671    0.6302539455526224    0.8684345649024514 Se
   0.8733029552690297    0.3653704020639078    0.3712191206145005 Se
