Mg7 Sc16 Se32
1.0
  11.1003847944368736    0.0000000000000000    0.0000000000000000
   0.0000000000000000   11.1003847944368736    0.0000000000000000
  -0.0000000000000000   -0.0000000000000000   11.1003847944368736
Mg Sc Se
7 16 32
direct
   0.4961157349577619    0.0007413529104989    0.5081064814446939 Mg
   0.2499991973183787    0.7500000066524439    0.7500001988155074 Mg
   0.1949084352759652    0.2315357104800421    0.2584136370308310 Mg
   0.7471681467937973    0.2467312777225620    0.7556665782915869 Mg
   0.0052153137483746    0.9958070744768209    0.9977978419193692 Mg
   0.7463064399407874    0.7438209196791442    0.2509525964831661 Mg
   0.0085011271987770    0.4932427032731382    0.4933558937662659 Mg
   0.1262943926957293    0.8790609819898658    0.3798624618570853 Sc
   0.3728179411287337    0.1281857611764916    0.8749673895907659 Sc
   0.3736014556077890    0.3756216819300994    0.6244674562796347 Sc
   0.1234377003646294    0.1254926830287567    0.6245912238668672 Sc
   0.1258650967472368    0.3679928138131019    0.8784778800780012 Sc
   0.3728111624712531    0.6318297089190948    0.3766737000634160 Sc
   0.3789761136124119    0.8763380822308745    0.1240050637471919 Sc
   0.1294584738857152    0.6271442751232491    0.1244807707600637 Sc
   0.6232344552573725    0.8764439251175572    0.8716369634688340 Sc
   0.8740288389412106    0.1248522608779422    0.3741425949544738 Sc
   0.8857819028582357    0.3669031031691920    0.1288390040078815 Sc
   0.6319448293345483    0.1224513160394545    0.1222653760854321 Sc
   0.6206622670760870    0.3738914142795532    0.3768703877972726 Sc
   0.8760896600112017    0.6233085621955938    0.8778788895473766 Sc
   0.8707644638526152    0.8735745472971124    0.6342384935087362 Sc
   0.6315384065262666    0.6280699056121920    0.6338249574334727 Sc
   0.3890636523164518    0.1177323513854278    0.1077261859033813 Se
   0.6168336788728623    0.3911168118307932    0.6126199452061085 Se
   0.6194293644964314    0.1085774687524794    0.8786375598338964 Se
   0.3827954842767440    0.3828922035764584    0.3825424265833889 Se
   0.3673791963949707    0.1320013292975489    0.6326176690046406 Se
   0.1245508794606342    0.8728697767281585    0.1333608815860600 Se
   0.1228044926942129    0.1299692033356360    0.8688414288739847 Se
   0.3612941752606512    0.8639245678449020    0.3701766023838348 Se
   0.3832940663418405    0.6173678319071771    0.6093778619637439 Se
   0.6178719583483442    0.8792777952752576    0.1145325334188781 Se
   0.6287602702922054    0.6137096234440256    0.3853277684420434 Se
   0.3796987139503162    0.8865671831136454    0.8859716221632706 Se
   0.3632106378074779    0.6349830304778723    0.1217430761291826 Se
   0.1316545117255266    0.3789299288266572    0.6313359660415574 Se
   0.1373007146546763    0.6235753535136663    0.3759964419344248 Se
   0.3763238836160187    0.3737118941583362    0.8626250712514452 Se
   0.8761218879472311    0.1164637203969546    0.6232218675232409 Se
   0.1158701127944889    0.3755492284915903    0.1140433661700575 Se
   0.1167427724292279    0.1160369767576975    0.3841278220152754 Se
   0.8820674280429216    0.3754878676285567    0.8841494769521798 Se
   0.8607899366144875    0.1368183525395199    0.1341511286230118 Se
   0.6413003834046066    0.8671364814913338    0.6259077767423077 Se
   0.6368502767093190    0.1290895903546947    0.3688364605979104 Se
   0.8777829333341295    0.8649425221102012    0.8640538631358080 Se
   0.8934095361887606    0.6122445617661260    0.1132359282192381 Se
   0.1171564824031286    0.8829304784519326    0.6179149573165521 Se
   0.1208364657062466    0.6166742167410706    0.8809260521580101 Se
   0.8818440073948013    0.8820704155474065    0.3805694691350854 Se
   0.8669243340136561    0.6337234543463476    0.6323917288109301 Se
   0.6402430920318628    0.3753032934627828    0.1408129900980253 Se
   0.6404995978227845    0.6315911576221365    0.8787255501349854 Se
   0.8619374965713391    0.3692104121868114    0.3708838603132648 Se
