Mg7 Sc16 Se32
1.0
  11.1003847944368736    0.0000000000000000    0.0000000000000000
   0.0000000000000000   11.1003847944368736    0.0000000000000000
  -0.0000000000000000   -0.0000000000000000   11.1003847944368736
Mg Sc Se
7 16 32
direct
   0.2434916483561048    0.2507397928359330    0.2519733693294021 Mg
   0.2515814248568768    0.7507362615550854    0.7517150320250248 Mg
   0.4994257127208930    0.4993852508404716    0.0027970179705655 Mg
   0.7555445894334670    0.2504884899037561    0.7454290552666494 Mg
   0.9981769061921115    0.0017019438545371    0.0033252699559611 Mg
   0.7454432074974245    0.7523857187468957    0.2494659762708114 Mg
   0.9944879188296588    0.4986674685647663    0.4958304123804395 Mg
   0.1255538319831814    0.8761978188035944    0.3773195675951450 Sc
   0.3746319472281432    0.1276934495245806    0.8743249087504358 Sc
   0.3740783619285864    0.3764457718008765    0.6251061509795405 Sc
   0.1268036959610764    0.1246490615482203    0.6261569715792653 Sc
   0.1239665500886186    0.3736448828224109    0.8787795576051370 Sc
   0.3796666123783178    0.6234324842950562    0.3720439095382232 Sc
   0.3728586895642418    0.8733896798598285    0.1232739751761065 Sc
   0.1240172132262582    0.6237665176529692    0.1176113359611178 Sc
   0.6243649425566025    0.8754742167116486    0.8744969772728129 Sc
   0.8697031286973583    0.1232421731922716    0.3819431755757494 Sc
   0.8791249631448852    0.3740950440544758    0.1222851782065674 Sc
   0.6278219870365258    0.1259848606242928    0.1316666593205668 Sc
   0.6236655151789871    0.3748488236891989    0.3770683534188843 Sc
   0.8680573857081111    0.6313951946688923    0.8720415612716174 Sc
   0.8791752688033879    0.8803579255049466    0.6234151370660284 Sc
   0.6231381662810566    0.6233605126542012    0.6206978419754190 Sc
   0.3831201025465094    0.1209063878649262    0.1158260147565989 Se
   0.6205406711396910    0.3843441341817720    0.6161647399749547 Se
   0.6174034347978766    0.1171236254221392    0.8829450134587435 Se
   0.3892373785657838    0.3765452277901552    0.3791302322411030 Se
   0.3661205252245892    0.1331214480421936    0.6268587474626142 Se
   0.1321185582168910    0.8591612524246712    0.1288469440738099 Se
   0.1407898768011817    0.1286996470710915    0.8695131999999933 Se
   0.3753060479216726    0.8684275744414771    0.3709332983542697 Se
   0.3733063285627235    0.6193743633699375    0.6182723898769029 Se
   0.6251890081747166    0.8798307149024015    0.1185493584420201 Se
   0.6164762989218956    0.6179349766639453    0.3831935848627648 Se
   0.3846344515691904    0.8826882722068481    0.8802805701225047 Se
   0.3687622888372543    0.6310294482131875    0.1255248586829814 Se
   0.1321832996048470    0.3669725153597072    0.6334730823397803 Se
   0.1377038145826514    0.6314729489460809    0.3695702022521745 Se
   0.3667475784193555    0.3703857806030680    0.8650162967640110 Se
   0.8915247419022804    0.1121780252261207    0.6202722978878908 Se
   0.1157970240800067    0.3893079361421496    0.1217744149292121 Se
   0.1164754362902574    0.1143928377945769    0.3806691234058975 Se
   0.8854398622240793    0.3799609036468146    0.8857012608241587 Se
   0.8650089160977491    0.1332679897834428    0.1328767699318218 Se
   0.6325721554542042    0.8668483162778212    0.6333367403298888 Se
   0.6342518136729796    0.1278831862037179    0.3576442669613331 Se
   0.8775877452558489    0.8693456962837982    0.8689362346563720 Se
   0.8812237827483161    0.6144680825859877    0.1141038187776017 Se
   0.1168548765186733    0.8825941844053586    0.6187688910194438 Se
   0.1170747529787955    0.6171656947437225    0.8824973518565354 Se
   0.8783945777004646    0.8783257131264970    0.3864053236773125 Se
   0.8671279070842127    0.6328960803474062    0.6330196372508843 Se
   0.6335368640436204    0.3666963032429520    0.1393440951010860 Se
   0.6334790385040429    0.6320658915027124    0.8641902488403632 Se
   0.8693317275533594    0.3599958169690490    0.3647711661963441 Se
