Mg7 Sc16 Se32
1.0
  11.1003847944368736    0.0000000000000000    0.0000000000000000
   0.0000000000000000   11.1003847944368736    0.0000000000000000
  -0.0000000000000000   -0.0000000000000000   11.1003847944368736
Mg Sc Se
7 16 32
direct
   0.4999986162510932    0.0012537560980046    0.4991255862094984 Mg
   0.2498887197732948    0.7519244783726136    0.7638209297386936 Mg
   0.4854062073835763    0.4961365963484092    0.0029122287442197 Mg
   0.7560672329945033    0.2382421919535764    0.7511957146022735 Mg
   0.0039072729474800    0.9969445376289994    0.9972514736879353 Mg
   0.7535062716191820    0.7490355343171713    0.2479094517644062 Mg
   0.1740570656096878    0.2967099406271881    0.2440497335860560 Mg
   0.1291211527968319    0.8744161755757361    0.3696887648579912 Sc
   0.3721666818125782    0.1360404288674764    0.8746064133925059 Sc
   0.3763415024217329    0.3847180867001488    0.6247709958726562 Sc
   0.1261451485413618    0.1389948101626991    0.6328551453028112 Sc
   0.1277002779366329    0.3679564107202438    0.8770104993865007 Sc
   0.3842695138659180    0.6171720283733777    0.3641671529389888 Sc
   0.3759417539475282    0.8704791762873454    0.1300103826130330 Sc
   0.1355610955186498    0.6162252300862109    0.1191946094968413 Sc
   0.6380814572055132    0.8819968299481914    0.8758752919278557 Sc
   0.8795327080201440    0.1318673329602538    0.3732903100491425 Sc
   0.8759823167280646    0.3811654871565562    0.1332461291208180 Sc
   0.6327368251721835    0.1166430633140668    0.1151012715339905 Sc
   0.6269415820716771    0.3760714935387855    0.3753813667217640 Sc
   0.8877648713372921    0.6271006440833531    0.8809101336376028 Sc
   0.8812244179629242    0.8768774600811431    0.6192521869930255 Sc
   0.6163409672197013    0.6158157208270457    0.6207555263696363 Sc
   0.3932006033793694    0.1145944957580312    0.1131615077056972 Se
   0.6078056588760989    0.3788746692611766    0.6183599414730875 Se
   0.6202271725818927    0.1165467996967248    0.8810647620977567 Se
   0.3840167519263876    0.3818140275190972    0.3842583590904018 Se
   0.3596918850605003    0.1270486086573719    0.6300008181556714 Se
   0.1397711752205054    0.8717801112578196    0.1414008364906290 Se
   0.1202543037883269    0.1315418206320636    0.8638633783647670 Se
   0.3687537344174817    0.8642272379470686    0.3711472006575301 Se
   0.3929185805313869    0.6227623914213880    0.6192276235852175 Se
   0.6169199632957195    0.8829140912633490    0.1165769184862741 Se
   0.6226735189366194    0.6136702596510566    0.3903241261991647 Se
   0.3740590793128367    0.8746746873364770    0.8778113975589221 Se
   0.3534918245965857    0.6322729484612599    0.1399764352644018 Se
   0.1238485611887696    0.3564691235350170    0.6331253412669405 Se
   0.1354822868506958    0.6310809523203113    0.3748327526894463 Se
   0.3672809262797360    0.3641467825141993    0.8657572872227394 Se
   0.8866566142758280    0.1162100431412068    0.6174984953568471 Se
   0.1180796476878391    0.3801895833358735    0.1045743079269466 Se
   0.1173480993903390    0.1171553672323941    0.3823050166284050 Se
   0.8868691819926606    0.3845648933513930    0.8845289220706808 Se
   0.8702952977612517    0.1353612769426861    0.1311991998368957 Se
   0.6279697845605570    0.8754003991952602    0.6211386962866570 Se
   0.6266267286899981    0.1310680241438456    0.3607301338176082 Se
   0.8658597270732414    0.8640059632917980    0.8651273300576884 Se
   0.8819712288072145    0.6168483912221873    0.1211305219442708 Se
   0.1199278108692103    0.8827573869472597    0.6151263526487062 Se
   0.1071178918087388    0.6246632901416335    0.8783655062123735 Se
   0.8710480664987199    0.8896889953135377    0.3757847742132579 Se
   0.8645409991172420    0.6275344152532066    0.6262746812414662 Se
   0.6325253487190429    0.3663720688383594    0.1366437763303552 Se
   0.6390262849069076    0.6339855720976246    0.8638808531047425 Se
   0.8649137158490907    0.3635637230281821    0.3709034244612424 Se
