Mg7 Sc16 Se32
1.0
  11.1003847944368736    0.0000000000000000    0.0000000000000000
   0.0000000000000000   11.1003847944368736    0.0000000000000000
  -0.0000000000000000   -0.0000000000000000   11.1003847944368736
Mg Sc Se
7 16 32
direct
   0.5017365105977465    0.0037565647498619    0.5004439345271504 Mg
   0.2495916309146365    0.7490286121179769    0.7506772297045408 Mg
   0.4955882775189209    0.5136979603574173    0.9882854366890322 Mg
   0.7499940446040575    0.2505290201975146    0.7520000828829929 Mg
   0.9991160702849601    0.0087487050970394    0.0135759677365016 Mg
   0.7523635717336534    0.7505361875227704    0.2531212587814776 Mg
   0.9981345715717058    0.5058655413370571    0.4879416268866429 Mg
   0.1291911437173202    0.8801577848142562    0.3743535956494650 Sc
   0.3704648881682903    0.1255371865212160    0.8770619883296825 Sc
   0.3831819504139808    0.3712180226595619    0.6241973340879514 Sc
   0.1343311460503890    0.1162164664279772    0.6184127554198857 Sc
   0.1217164930005189    0.3769104591778722    0.8776630709170719 Sc
   0.3763502265354225    0.6299277592340401    0.3675610179316297 Sc
   0.3853386966956094    0.8760113501139702    0.1171945655302557 Sc
   0.1337442328560199    0.6184973990949342    0.1403657018260395 Sc
   0.6304007351886858    0.8801916617556873    0.8881333876295997 Sc
   0.8833576508563719    0.1200561526978842    0.3758507817711933 Sc
   0.8848085171553961    0.3723440886189048    0.1264083315083957 Sc
   0.6371122492037468    0.1313633588523859    0.1177273514269234 Sc
   0.6151970710036169    0.3646048695300493    0.3879399598128437 Sc
   0.8637266546956596    0.6194403666128718    0.8726303536193852 Sc
   0.8833758249274740    0.8728624748467070    0.6266790888468738 Sc
   0.6251071052468551    0.6251095452899889    0.6250049432991971 Sc
   0.3938560385722062    0.1138598158287775    0.1096341402731749 Se
   0.6169451946245222    0.3824197007592273    0.6170116968273220 Se
   0.6244632441601459    0.1192393772738034    0.8757652256450883 Se
   0.3840409066997840    0.4003716047160505    0.3829820510229311 Se
   0.3516774902427730    0.1236846097081500    0.6281694853688788 Se
   0.1347100330719720    0.8660502817782639    0.1272344415322163 Se
   0.1194762633701727    0.1325608973606359    0.8755067705911588 Se
   0.3641229616153603    0.8637440564302695    0.3605388979628613 Se
   0.3796340003748475    0.6253875018159563    0.6140556982569865 Se
   0.6170320711378668    0.8844058649814230    0.1173867054267577 Se
   0.6025658296937753    0.6254454131212051    0.3799945545559479 Se
   0.3838834385285992    0.8843844462207894    0.8816894627360130 Se
   0.3667653629766584    0.6391632503099540    0.1321979315855212 Se
   0.1275262032079632    0.3672336285043452    0.6378527185644571 Se
   0.1325511130273723    0.6332321514678797    0.3680419383687276 Se
   0.3702443158198571    0.3495563943866276    0.8634772166238210 Se
   0.8906000546005007    0.1154083461002635    0.6350653559102568 Se
   0.1217539250238660    0.3825313468388030    0.1147771470374203 Se
   0.1072561491013571    0.1174468188475488    0.3722586363307456 Se
   0.8838008158408548    0.3851758028374515    0.8819156865180787 Se
   0.8672901756256769    0.1336328358208200    0.1329424021056775 Se
   0.6362473651165588    0.8705776759055771    0.6286746471519020 Se
   0.6234878150153454    0.1178827990541612    0.3695749909765338 Se
   0.8762820483295400    0.8767897533184449    0.8804526105306201 Se
   0.8820253350798682    0.6215381688129212    0.1208160752362225 Se
   0.1211762756401825    0.8780290405270006    0.6183391185145193 Se
   0.1105150495318359    0.6140070235155147    0.8787087312386149 Se
   0.8824609121793092    0.8671137273564760    0.3879094810882898 Se
   0.8716915474163855    0.6296788669945117    0.6308638194150853 Se
   0.6286061120144639    0.3545940928434734    0.1341770397006009 Se
   0.6236269811132528    0.6333377473006300    0.8744132851765085 Se
   0.8566329889236652    0.3574311427751798    0.3635436781091079 Se
