Mg7 Sc16 Se32
1.0
  11.1003847944368736    0.0000000000000000    0.0000000000000000
   0.0000000000000000   11.1003847944368736    0.0000000000000000
  -0.0000000000000000   -0.0000000000000000   11.1003847944368736
Mg Sc Se
7 16 32
direct
   0.4998853451959417    0.9984680537148608    0.4994305166767597 Mg
   0.2501169690650487    0.7504367843891984    0.7500609725233560 Mg
   0.4986800977000202    0.4992857472615999    0.9972435663831902 Mg
   0.7499130145389420    0.2498262143994127    0.7497908748842135 Mg
   0.0012879962261655    0.9958100204145622    0.9943533693133053 Mg
   0.7488126274586951    0.7510535722096383    0.2487093392290819 Mg
   0.9987005539294920    0.4976713285652971    0.5061911878615718 Mg
   0.1234752970070722    0.8763042601766141    0.3736992685751453 Sc
   0.3756398879737827    0.1262927359582521    0.8694165577101107 Sc
   0.3814548351256681    0.3763206640407291    0.6256812382471998 Sc
   0.1244506164112980    0.1255161088675607    0.6240363815167997 Sc
   0.1228964954412697    0.3722970557706896    0.8752902141269521 Sc
   0.3743490744322405    0.6247509179221743    0.3768890865065880 Sc
   0.3755733169247066    0.8742793922867148    0.1251825997765350 Sc
   0.1251332046857396    0.6236437639945094    0.1250548951396224 Sc
   0.6275154282444210    0.8752221170258863    0.8789750465694109 Sc
   0.8768132952799907    0.1247112134043267    0.3733665551499605 Sc
   0.8755269026125594    0.3730183532702796    0.1250319799545373 Sc
   0.6250063169593124    0.1249841948436528    0.1250002629317170 Sc
   0.6255364976872891    0.3774885044479423    0.3759296592214980 Sc
   0.8760737005725208    0.6254739464072294    0.8760307030764429 Sc
   0.8765134339797110    0.8739543805405416    0.6316426668943567 Sc
   0.6250965341858972    0.6268567738799218    0.6254921332272942 Sc
   0.3844689617982024    0.1226028265814236    0.1137550670642636 Se
   0.6169949611132528    0.3830860277541182    0.6170204843879535 Se
   0.6174923565858855    0.1182522369471476    0.8814758241879466 Se
   0.3863527681307077    0.3801440422183157    0.3871987543965075 Se
   0.3613980121296510    0.1356401728683375    0.6360641434063515 Se
   0.1323987437942815    0.8689597494008325    0.1306582707701398 Se
   0.1331883405413692    0.1343900978367395    0.8656280330367583 Se
   0.3705914790880203    0.8671770659043387    0.3651321519007895 Se
   0.3865648738662312    0.6173522384446449    0.6168813917237083 Se
   0.6181162727420256    0.8804688316895201    0.1216991685386443 Se
   0.6175794861703061    0.6133532782493698    0.3855079770206598 Se
   0.3780177186880413    0.8847986815957690    0.8844792240149473 Se
   0.3680268469138107    0.6341329604000367    0.1354264605619594 Se
   0.1331739288511869    0.3607194934581154    0.6307734624249618 Se
   0.1333594718890612    0.6316542263660976    0.3665927974152389 Se
   0.3718526674695309    0.3681038840870406    0.8672077611445036 Se
   0.8899863641022707    0.1195960335138820    0.6179611957061752 Se
   0.1164264417099589    0.3850052627572042    0.1183455218987327 Se
   0.1147913072831077    0.1175672345865841    0.3835729277928514 Se
   0.8763896967972957    0.3851217322137441    0.8818388632653994 Se
   0.8682544418912790    0.1345165374885636    0.1321855547433274 Se
   0.6356169718518559    0.8659124230454115    0.6340163292281672 Se
   0.6326298920764769    0.1334902874435588    0.3675189190495146 Se
   0.8730920701694174    0.8651344729080163    0.8661183273901620 Se
   0.8807102422858878    0.6122853986139862    0.1145360593546546 Se
   0.1188858994316312    0.8849587207528410    0.6111650751993797 Se
   0.1227157008141780    0.6222043252838771    0.8824217816713611 Se
   0.8789331395244638    0.8890465626413356    0.3852861518500236 Se
   0.8684877081999408    0.6333838756315274    0.6312204942315602 Se
   0.6319321945519381    0.3654621502008387    0.1324254623008727 Se
   0.6328647230413015    0.6306441303912533    0.8662859927902302 Se
   0.8693169853214233    0.3689564366439433    0.3741445675039805 Se
