Mg7 Sc16 Se32
1.0
  11.1003847944368736    0.0000000000000000    0.0000000000000000
   0.0000000000000000   11.1003847944368736    0.0000000000000000
  -0.0000000000000000   -0.0000000000000000   11.1003847944368736
Mg Sc Se
7 16 32
direct
   0.4967842170059285    0.0026817269930522    0.5002357410953836 Mg
   0.2523057885594512    0.7514263263462357    0.7532059502044237 Mg
   0.4986647141767778    0.5038216349046322    0.0002576835122789 Mg
   0.7475588569091561    0.2498728124947870    0.7498087625396448 Mg
   0.9997575851779423    0.0006682713936045    0.9996021239024074 Mg
   0.7470919835246445    0.7513751076785127    0.2512695886815730 Mg
   0.0380454436768033    0.4695031261152988    0.4614114315979413 Mg
   0.1254812837838309    0.8730753355051588    0.3756672248869405 Sc
   0.3750245164323457    0.1268055626007145    0.8731868083645772 Sc
   0.3740320851132001    0.3747668999104824    0.6252516248109121 Sc
   0.1219463133150928    0.1226619836349207    0.6247426919816200 Sc
   0.1268055803748674    0.3763619521217126    0.8730386440013479 Sc
   0.3741025847943587    0.6273965183930933    0.3742165818907457 Sc
   0.3745409796948233    0.8780582758661828    0.1278209110840169 Sc
   0.1246323247428685    0.6252564084575458    0.1257002914171866 Sc
   0.6243914000195677    0.8758554814786754    0.8755090042445761 Sc
   0.8728936929441431    0.1258285210173690    0.3786715398425292 Sc
   0.8738683945461030    0.3741206302800729    0.1253101796564614 Sc
   0.6255220617363558    0.1250783121005955    0.1248776803305711 Sc
   0.6265939978923847    0.3764119044461567    0.3778834944345043 Sc
   0.8782249947945349    0.6253152414566640    0.8760753114634354 Sc
   0.8751398504305850    0.8755417495484137    0.6252934749642506 Sc
   0.6241532374328813    0.6261363296458786    0.6240935177864950 Sc
   0.3829536682980299    0.1171732300920998    0.1170733333326586 Se
   0.6175053211355895    0.3836589505983208    0.6163077701333640 Se
   0.6177238135223151    0.1168524554411521    0.8828005928153552 Se
   0.3828052775501316    0.3816349149986811    0.3817001912011923 Se
   0.3668375700758487    0.1339736148546990    0.6328312109818213 Se
   0.1336539665172199    0.8672214236611513    0.1349470933952142 Se
   0.1328750527381238    0.1329442441479287    0.8670904217978896 Se
   0.3669928294601252    0.8714897385915706    0.3671235984825267 Se
   0.3828296954767376    0.6159440909745910    0.6172780139658750 Se
   0.6163580815740474    0.8786254849503596    0.1169969425319511 Se
   0.6191910558846209    0.6147260447856956    0.3857374819666698 Se
   0.3847962372859930    0.8832312251310068    0.8817971181846209 Se
   0.3676465795342990    0.6329630557172179    0.1331957793973131 Se
   0.1321888563093847    0.3649360247084742    0.6295539715567221 Se
   0.1349046549021928    0.6336225522285268    0.3701493633187096 Se
   0.3680525209276014    0.3661715289789443    0.8666598922236441 Se
   0.8828164087832395    0.1170668790223962    0.6172917209272936 Se
   0.1164058580664910    0.3830078041979906    0.1168836553802248 Se
   0.1145539708030508    0.1192929407921533    0.3816557784200094 Se
   0.8847151469677914    0.3830822988862442    0.8822847367614718 Se
   0.8662831593809457    0.1369277112238413    0.1320916810081357 Se
   0.6311508095046551    0.8672597493393428    0.6334450800030450 Se
   0.6332366955457818    0.1321320671603464    0.3684868587037829 Se
   0.8670721822026513    0.8666350571227465    0.8666946025406521 Se
   0.8824077105452842    0.6150123779212362    0.1172972273390904 Se
   0.1181396262376749    0.8818502466249432    0.6154035796678952 Se
   0.1159367733660347    0.6163280154040067    0.8844659610676791 Se
   0.8834392258313046    0.8825561079868538    0.3791840296964208 Se
   0.8664544826743565    0.6324887364662406    0.6329942457395235 Se
   0.6330844372246449    0.3678973268291609    0.1313152953938754 Se
   0.6322908721031929    0.6350176413026026    0.8644434672391130 Se
   0.8690129114337443    0.3675184985985172    0.3694848351394251 Se
