Mg7 Sc16 Se32
1.0
  11.1003847944368736    0.0000000000000000    0.0000000000000000
   0.0000000000000000   11.1003847944368736    0.0000000000000000
  -0.0000000000000000   -0.0000000000000000   11.1003847944368736
Mg Sc Se
7 16 32
direct
   0.5081846717102435    0.9925897173248927    0.4826583415451635 Mg
   0.2364975192702642    0.7567481912519324    0.7576557491081982 Mg
   0.3604105494958437    0.4065375578491628    0.0751493565302646 Mg
   0.7515530325479791    0.2515694512302171    0.7556053641721394 Mg
   0.9879496777523948    0.0044085375864360    0.0128565430480191 Mg
   0.7543627330702252    0.7398052863215840    0.2435848770045511 Mg
   0.0152408563128334    0.5114235944424191    0.4851355236690651 Mg
   0.1274841919928051    0.8753070848255520    0.3770545429435491 Sc
   0.3712871423338092    0.1320222548379493    0.8780844548274799 Sc
   0.3671318433759993    0.3814923776433863    0.6143372869226944 Sc
   0.1326286582576194    0.0994816491930594    0.6260797298147818 Sc
   0.1222156265858936    0.3726013214735869    0.8673577285025856 Sc
   0.3713462366800616    0.6407148391389633    0.3710504139721546 Sc
   0.3544926807232300    0.8862969691167835    0.1218471480201430 Sc
   0.1335994863040134    0.6261706662712823    0.1311158151212429 Sc
   0.6229769507282058    0.8917602387619775    0.8554539696962487 Sc
   0.8795992110046923    0.1320993510993171    0.3813940549026054 Sc
   0.8757340479776801    0.3919871409344678    0.1312176846199033 Sc
   0.6082555366163431    0.1143982751829717    0.1187868317783665 Sc
   0.6251380713493644    0.3960697970545494    0.3708304968349962 Sc
   0.8697012451982189    0.6213512416907285    0.8835075300672280 Sc
   0.8761115036225322    0.8774899451493802    0.6276934353184567 Sc
   0.6213096956206068    0.6245899354553751    0.6151768136627376 Sc
   0.3933166262659865    0.1307161298189139    0.1139149580789373 Se
   0.6239228059205844    0.3602859680231536    0.6067910040750559 Se
   0.6090170868495880    0.1141507517364175    0.8930626602495366 Se
   0.3934463439840266    0.3981764669863606    0.3940001603254765 Se
   0.3609849199866250    0.1215171176244388    0.6096851176806711 Se
   0.1247973511928610    0.8587913838799797    0.1196902372095014 Se
   0.1188812200343251    0.1281368752958358    0.8587559384654420 Se
   0.3664003168052364    0.8661334993505707    0.3676404394054407 Se
   0.3921567492265672    0.6178412093464754    0.6206056484296804 Se
   0.6003651134442263    0.8880946601048282    0.1050745128847183 Se
   0.6291340503777260    0.6127611146703853    0.3841322581744476 Se
   0.3937870516029432    0.8856848427454148    0.8956503500950042 Se
   0.3718995988325957    0.6166120121444668    0.1224470095733818 Se
   0.1344779051138948    0.3538613518257412    0.6277530082677103 Se
   0.1226761480503385    0.6300101773152085    0.3668503079257921 Se
   0.3663185985795275    0.3628236388875935    0.8643490738242408 Se
   0.8833401959075690    0.1170072726833383    0.6166792464670653 Se
   0.1026826461179006    0.3790579184543866    0.1247181062484273 Se
   0.1121359546467197    0.1154199310717582    0.3941704646145874 Se
   0.8821937980831392    0.3807015309375761    0.8845735693640141 Se
   0.8672441659548321    0.1413452157116235    0.1258056122716240 Se
   0.6409641907762971    0.8904211854022506    0.6412056213100914 Se
   0.6220305667108352    0.1323697905333589    0.3782081868909137 Se
   0.8623338323976030    0.8881740231996815    0.8677146722311722 Se
   0.8941055390184760    0.6256973922915242    0.1106003482983199 Se
   0.1125088359952362    0.8871889266790780    0.6177716799109806 Se
   0.1261844636712127    0.6121499748510852    0.8892278147304015 Se
   0.8799545245404373    0.8785888497632339    0.3654845861582781 Se
   0.8586295326043187    0.6207069057630232    0.6358589329334419 Se
   0.6258195562127695    0.3903544866874966    0.1216334057567637 Se
   0.6377318405920382    0.6330979547344361    0.8660616136717888 Se
   0.8618169708065886    0.3698873938011440    0.3641427922437796 Se
