Mg7 Sc16 Se32
1.0
  11.1003847944368736    0.0000000000000000    0.0000000000000000
   0.0000000000000000   11.1003847944368736    0.0000000000000000
  -0.0000000000000000   -0.0000000000000000   11.1003847944368736
Mg Sc Se
7 16 32
direct
   0.4991975827311803    0.0118840720469642    0.5037847560255190 Mg
   0.2011262766447698    0.1997367505833387    0.1671996454003556 Mg
   0.4960069656259920    0.5068363064071035    0.9837019014777573 Mg
   0.7345440287679763    0.2456447810952981    0.7384087207335164 Mg
   0.0049965392740284    0.0043079807376862    0.0102019994065947 Mg
   0.7481337235199670    0.7512401379391368    0.2478847329131261 Mg
   0.0143472139906620    0.4867245621223931    0.4941344241920038 Mg
   0.1167624821250719    0.8824021721011679    0.3731947396304673 Sc
   0.3927354178025532    0.1199010168261910    0.8685605097141869 Sc
   0.3752160616245899    0.3796474249125751    0.6204603846084067 Sc
   0.1172728046963522    0.1285650253461402    0.6180790860452365 Sc
   0.1215469675423785    0.3601866041599127    0.8645672909358011 Sc
   0.3698418811441034    0.6345258926853229    0.3590615095717671 Sc
   0.3709627530963211    0.8696116313426649    0.1325605376124510 Sc
   0.1239839936508935    0.6242913658194734    0.1259931191448272 Sc
   0.6274774478752416    0.8725889084665712    0.8591929748076886 Sc
   0.8706442729897265    0.1362352677935825    0.3755098823846368 Sc
   0.8599171980620955    0.3789877582349363    0.1172690257298024 Sc
   0.6227176675284776    0.1258948116468271    0.1288545907020904 Sc
   0.6311337308401248    0.3709394331937860    0.3703492240788436 Sc
   0.8615157534359399    0.6239151898799384    0.8601268237148596 Sc
   0.8746005119693118    0.8698605158749690    0.6274348872410035 Sc
   0.6264141921111817    0.6260791378786922    0.6212253646390761 Sc
   0.3870215652923426    0.1145232778763328    0.1151303002475539 Se
   0.6299037084755683    0.3814432956755252    0.6144659220870753 Se
   0.6233550700501791    0.1210032206339922    0.8797772432836608 Se
   0.3796288171191240    0.3858990162065051    0.3844329171797063 Se
   0.3653908230550574    0.1323568179608215    0.6322660565241144 Se
   0.1321423586048069    0.8760790670846117    0.1242219286417671 Se
   0.1406703218573851    0.1279648775863334    0.8777923308196420 Se
   0.3751976009375054    0.8695505610381737    0.3772535751629178 Se
   0.3872225564110251    0.6107813774467801    0.6200963413415956 Se
   0.6160332511495132    0.8838507240475219    0.1178829635371531 Se
   0.6175764928972404    0.6112248531435415    0.3846719786352990 Se
   0.3803044119118766    0.8816089293179342    0.8850267746013118 Se
   0.3792599179337913    0.6327659117299539    0.1191064897825150 Se
   0.1333149784618926    0.3683017097631600    0.6321173449095746 Se
   0.1406646895358575    0.6344054857422610    0.3671358657359952 Se
   0.3653086045123470    0.3676979664614674    0.8671301769723179 Se
   0.8823294673445148    0.1174258720152719    0.6168730243419366 Se
   0.1209701150683434    0.4004379314388535    0.1253776646170277 Se
   0.1028286268203021    0.1234460442159519    0.3752946342656936 Se
   0.8819699830906697    0.3844110228136525    0.8816923179684317 Se
   0.8678873307825415    0.1387333166967329    0.1319276732853454 Se
   0.6361754646969303    0.8770058257655865    0.6314577806895182 Se
   0.6336072552581236    0.1365318845113887    0.3681925164237652 Se
   0.8667432511902613    0.8657877534673577    0.8562221499257811 Se
   0.8893182588339860    0.6196070358247970    0.1177973061595865 Se
   0.1168665071599108    0.8829708829065408    0.6173045418244617 Se
   0.1191664973648503    0.6093567713752033    0.8822930056735581 Se
   0.8730051480869963    0.8754230834832587    0.3787708863203950 Se
   0.8671857282301692    0.6405960055113539    0.6291442349959028 Se
   0.6244939743185602    0.3831050970422428    0.1325054095881121 Se
   0.6319326750272887    0.6479540198248592    0.8665055125060240 Se
   0.8643162623929640    0.3666830792520365    0.3544168138551327 Se
