Mg7 Sc16 Se32
1.0
  11.1003847944368736    0.0000000000000000    0.0000000000000000
   0.0000000000000000   11.1003847944368736    0.0000000000000000
  -0.0000000000000000   -0.0000000000000000   11.1003847944368736
Mg Sc Se
7 16 32
direct
   0.4854828006914678    0.0098900011259968    0.5092357231526233 Mg
   0.2455754619939214    0.7537384021568909    0.7514682986906980 Mg
   0.5150745608276444    0.5073705281075284    0.9879789466372199 Mg
   0.7496057819135951    0.2658170821225549    0.7368591193351115 Mg
   0.0027376404453589    0.0037800355782527    0.9982842204928720 Mg
   0.7470787470447217    0.7451414336401464    0.2347451084495892 Mg
   0.2429424727120075    0.2418009445146299    0.2539951435332711 Mg
   0.1249108876539931    0.8824937104566385    0.3765788103539016 Sc
   0.3766082158403569    0.1233649938329524    0.8686052022068282 Sc
   0.3741581210361348    0.3787694044616016    0.6178448872637676 Sc
   0.1166557227237325    0.1161935644433175    0.6336006989037436 Sc
   0.1211558994647363    0.3633323302650787    0.8555882453635657 Sc
   0.3734450786708544    0.6276565449404627    0.3858894138186196 Sc
   0.3902201810198530    0.8735752622848094    0.1137048459994537 Sc
   0.1241468635956834    0.6272647254921063    0.1274886935383160 Sc
   0.6157655917020461    0.8698854987394060    0.8652715656827138 Sc
   0.8744901394660294    0.1246218763211708    0.3753868770084106 Sc
   0.8757899498386343    0.3731020341814087    0.1342574250952459 Sc
   0.6218792168331768    0.1217647350705322    0.1257575503868728 Sc
   0.6327848560304128    0.3785283033449967    0.3858962611053764 Sc
   0.8814685252941442    0.6250484409487551    0.8766962268587886 Sc
   0.8558399572210116    0.8684155418787614    0.6199371266404454 Sc
   0.6241140419474416    0.6281868977616646    0.6254512221520252 Sc
   0.3989567797593723    0.1297163937756389    0.1229231285356748 Se
   0.6173693696462369    0.3826649805427579    0.6173617845757812 Se
   0.6104112642098289    0.1282677566430951    0.9012625462630769 Se
   0.3945779549175833    0.3700710545159476    0.3877849673187281 Se
   0.3619535765821255    0.1367254900827963    0.6258532231290513 Se
   0.1427194192831333    0.8650074368007162    0.1359917765991112 Se
   0.1278830316379121    0.1293620587552802    0.8751910843869255 Se
   0.3575992857603742    0.8713122677147045    0.3781860754100865 Se
   0.3874547999972671    0.6123077918421854    0.6241140696760289 Se
   0.6188664488752795    0.8742705051669208    0.1128049695274038 Se
   0.6180174591544642    0.6121010685635743    0.3836974132202888 Se
   0.3907890668710506    0.8810773546490512    0.8876991246801165 Se
   0.3735806232247747    0.6145004740056282    0.1357114974088285 Se
   0.1360199819032888    0.3874126100802612    0.6352969672073037 Se
   0.1221480215893385    0.6293087586821472    0.3535589422152914 Se
   0.3646213570720119    0.3608802413095568    0.8643695543386208 Se
   0.8824148130779780    0.1193372455793590    0.6124033333990705 Se
   0.1199363823713419    0.3883940122400688    0.1219837742473590 Se
   0.1156389353215474    0.1203617540909126    0.3762541070676647 Se
   0.8900020348832866    0.3958064309235642    0.8834699009392105 Se
   0.8764847130863710    0.1391415017722553    0.1285675831988221 Se
   0.6328767849166870    0.8671253461668342    0.6328695777918371 Se
   0.6308161118942264    0.1169292363448884    0.3596338036421099 Se
   0.8794463968049731    0.8762319322625772    0.8719426011907754 Se
   0.8833491464107882    0.6197872066421763    0.1171530955165516 Se
   0.1163299748240972    0.8822653233971008    0.6177414644704795 Se
   0.1188498968733295    0.6160228701278737    0.8728978708105555 Se
   0.8739210372838196    0.8843235970369063    0.3813264011572748 Se
   0.8644968963801842    0.6342503707459964    0.6537101211645312 Se
   0.6181718926844523    0.3507097394665578    0.1406823281363216 Se
   0.6338172139531733    0.6225514705652522    0.8713021146033477 Se
   0.8652103727340354    0.3676714746969814    0.3699301467187155 Se
