Mg7 Sc16 Se32
1.0
  11.1003847944368736    0.0000000000000000    0.0000000000000000
   0.0000000000000000   11.1003847944368736    0.0000000000000000
  -0.0000000000000000   -0.0000000000000000   11.1003847944368736
Mg Sc Se
7 16 32
direct
   0.5185970652092458    0.9996531181518107    0.5019604200034854 Mg
   0.2373981556423734    0.7592782868753585    0.7614884091768565 Mg
   0.5064156312398512    0.5119169494505806    0.0114285886578547 Mg
   0.7536864053247273    0.2564139978629436    0.7473863361582016 Mg
   0.0063474426638914    0.0145353490554056    0.0003945574208549 Mg
   0.7499708513234820    0.7501688050092240    0.2503500969764054 Mg
   0.0050019555872489    0.4998928910466998    0.5183888084935830 Mg
   0.1452164911050151    0.8741435111412069    0.3687161234044551 Sc
   0.3659668864947183    0.1338752575870648    0.8775479018411615 Sc
   0.3811233495455997    0.3887704499061072    0.6415404697033750 Sc
   0.1254256318873471    0.1230045676455701    0.6380806505745996 Sc
   0.1206679622749704    0.3588925457634277    0.8935823495949891 Sc
   0.3773250003386372    0.6061430590523141    0.3927915620747207 Sc
   0.3587573827626084    0.8624624123935827    0.1296359158000662 Sc
   0.1328921783016198    0.6307345245226174    0.0999541148114595 Sc
   0.6302232488342266    0.8767873041469938    0.8782804374847256 Sc
   0.8726502893861847    0.1266370920247423    0.3911037249198280 Sc
   0.8746564622318272    0.3755635814266319    0.1391685957181574 Sc
   0.6178585362646462    0.1370267793393655    0.1233472335284355 Sc
   0.6251166385170019    0.3740524555605591    0.3765707919186661 Sc
   0.8748848312031647    0.6211941868417835    0.8723322197685363 Sc
   0.8799126847907058    0.8737715259433979    0.6130417598610207 Sc
   0.6232031395890613    0.6290079145710656    0.6271393522288673 Sc
   0.3606849100327499    0.1232317516733554    0.1299893128058935 Se
   0.6274029107235536    0.3639792063695158    0.6175581734288148 Se
   0.6326744633169963    0.1325484013453533    0.8704463088836130 Se
   0.3826227693097255    0.3806732147868699    0.3844978379196421 Se
   0.3696307980112624    0.1560578369519021    0.6275353117633404 Se
   0.1284218334583036    0.8490194310109995    0.1481640247122230 Se
   0.1331654296460347    0.1357115257868774    0.8674889508134741 Se
   0.3674231357014960    0.8676045938455619    0.3670364689785308 Se
   0.3832019403443958    0.6159671576759291    0.6186033962571804 Se
   0.6125205210999896    0.8950181139755167    0.1339561761128458 Se
   0.6125693610886734    0.6022529077679104    0.3926076898358412 Se
   0.4030590337890916    0.8855498119408665    0.8750344629405336 Se
   0.3607113558358290    0.6373536793821324    0.1375478535038502 Se
   0.1310722832815295    0.3708020637386048    0.6358885341963569 Se
   0.1485484982676947    0.6286568128218994    0.3777561409974649 Se
   0.3662199131649842    0.3645014339853835    0.8669744387664778 Se
   0.8798684005859002    0.1153884658558905    0.6213129225351556 Se
   0.1177374300138895    0.3782342988708515    0.1186052066124630 Se
   0.1034258233053234    0.1211629697673422    0.3638027869443741 Se
   0.8787418986018262    0.4012392265646280    0.8818753481402994 Se
   0.8712162385758556    0.1259512554576085    0.1519594246974013 Se
   0.6320260268822102    0.8645799081808789    0.6326933253734714 Se
   0.6277126750786703    0.1321160572638936    0.3653839701628437 Se
   0.8693057829340057    0.8569960636398619    0.8575772846588188 Se
   0.8856943050643028    0.6165255059628769    0.1222977765689466 Se
   0.1197299691397996    0.8957574891430152    0.6232070701854827 Se
   0.1055381257306150    0.6193050926522420    0.8592984652135800 Se
   0.8920280733488036    0.8646657058379991    0.3765749320682406 Se
   0.8546270659130136    0.6441538384115983    0.6361862924916145 Se
   0.6361393690450871    0.3636075586024857    0.1455456763565075 Se
   0.6405791122404145    0.6453116223711058    0.8527606801990982 Se
   0.8622052681148636    0.3530575574509258    0.3620850705079338 Se
