Mg7 Sc16 Se32
1.0
  11.1003847944368736    0.0000000000000000    0.0000000000000000
   0.0000000000000000   11.1003847944368736    0.0000000000000000
  -0.0000000000000000   -0.0000000000000000   11.1003847944368736
Mg Sc Se
7 16 32
direct
   0.4998994464731575    0.0000913430248911    0.5001005669474300 Mg
   0.1592354010751480    0.2410989139266680    0.1830641740996598 Mg
   0.5001705356670959    0.4990018565157006    0.0001798903899508 Mg
   0.7496887613179810    0.2492744063014560    0.7503201473364763 Mg
   0.9928021516208891    0.0016835217443250    0.9930786862083574 Mg
   0.7517305625586914    0.7480039038345020    0.2419201646098032 Mg
   0.0024104333950153    0.5003009504482618    0.5061494759613597 Mg
   0.1256170940434082    0.8711126578046846    0.3781133228015471 Sc
   0.3727803909383903    0.1238745399015309    0.8750944151284619 Sc
   0.3650047979284508    0.3678005694438042    0.6267739273246740 Sc
   0.1255250582356343    0.1313194564755297    0.6282005520390761 Sc
   0.1291291366253655    0.3715926004434986    0.8712165436885795 Sc
   0.3722613450292882    0.6291250845302482    0.3660121973790005 Sc
   0.3753498453513407    0.8770920996341286    0.1366179695349753 Sc
   0.1356423016416050    0.6298126516744557    0.1227506830808552 Sc
   0.6233029089243167    0.8711386557571893    0.8698857804172603 Sc
   0.8646495664347799    0.1317387493483352    0.3788857595441897 Sc
   0.8741691741127450    0.3779468796544681    0.1247178005170820 Sc
   0.6237753122552115    0.1258157255037871    0.1327453193041976 Sc
   0.6344574070036980    0.3741517495897728    0.3653417956472498 Sc
   0.8757469115386676    0.6231805229309486    0.8835697363241122 Sc
   0.8740326594890184    0.8721975690933085    0.6287815864349769 Sc
   0.6308103600075855    0.6296310404732243    0.6275089017837613 Sc
   0.3828668259071183    0.1171650986520018    0.1170784414457852 Se
   0.6164506931703463    0.3752635045518125    0.6115116900386491 Se
   0.6261708435254675    0.1187599691594567    0.8804545246611811 Se
   0.3863711001186803    0.3941880950631785    0.3755214378996826 Se
   0.3717104416378477    0.1295200098337664    0.6250383251744621 Se
   0.1367050284465742    0.8688982512748628    0.1377605796190972 Se
   0.1327772778784284    0.1334420271473117    0.8681009159849629 Se
   0.3700261588288140    0.8771803844877952    0.3596019260980704 Se
   0.3829027365396146    0.6192632728818341    0.6150880127063542 Se
   0.6187417288687647    0.8803170072058432    0.1183791503636207 Se
   0.6146040660201089    0.6122785943875020    0.3726371307776091 Se
   0.3810872827919484    0.8848971317478037    0.8829902098076646 Se
   0.3665061333676192    0.6377209499805746    0.1220012655737770 Se
   0.1365765760969941    0.3689776761767852    0.6293292804050522 Se
   0.1376500442315338    0.6270628054638762    0.3745705223686097 Se
   0.3681932931205518    0.3667190717661648    0.8678030673632291 Se
   0.8822363904958118    0.1187795621516985    0.6158577495037221 Se
   0.1166353933291380    0.3825999869969015    0.1215273281856711 Se
   0.1175160657349164    0.1190584720852951    0.3840193837691026 Se
   0.8897337186908628    0.3798541313106180    0.8757606446229699 Se
   0.8777633489480445    0.1304997302844937    0.1275589223962272 Se
   0.6323537397324503    0.8671451496741207    0.6328241585459927 Se
   0.6374903576671157    0.1273573808309845    0.3710723734758850 Se
   0.8613768672054394    0.8615214052036911    0.8661684789533426 Se
   0.8842850068411443    0.6170475825315980    0.1137063148798364 Se
   0.1075582596937435    0.8867906631314563    0.6091141685343373 Se
   0.1233208443886559    0.6190778827914152    0.8774693198068465 Se
   0.8814136645436063    0.8797687351336572    0.3784279393312145 Se
   0.8764298110637674    0.6270654679402369    0.6297464164140767 Se
   0.6317487127840024    0.3624868680859783    0.1414643371730993 Se
   0.6289614236787450    0.6305228106848859    0.8630324298847047 Se
   0.8645300458529689    0.3679511919907040    0.3725229537018357 Se
