Mg7 Sc16 Se32
1.0
  11.1003847944368736    0.0000000000000000    0.0000000000000000
   0.0000000000000000   11.1003847944368736    0.0000000000000000
  -0.0000000000000000   -0.0000000000000000   11.1003847944368736
Mg Sc Se
7 16 32
direct
   0.5029496378601620    0.0022849729849094    0.4994476242469593 Mg
   0.1814576064016448    0.2099717650608075    0.1556368473941040 Mg
   0.5063509416635343    0.4999443534210843    0.0067522455040645 Mg
   0.7438774423754132    0.2395358428159823    0.7461532110218061 Mg
   0.0035658152561023    0.0001158006201020    0.0001096465222976 Mg
   0.7494504102518268    0.7494040241534125    0.2448010160389874 Mg
   0.0032926621362785    0.4953044445131076    0.5089071990791875 Mg
   0.1319929280711533    0.8764659318880772    0.3736007695531806 Sc
   0.3722045425029931    0.1279078883628559    0.8834611019622982 Sc
   0.3721821883703549    0.3799400326967421    0.6212169493950792 Sc
   0.1177129056618009    0.1270126320279643    0.6158449196248517 Sc
   0.1172457904823055    0.3715433768300640    0.8710136207809709 Sc
   0.3819855943823255    0.6222456509254204    0.3724499343114728 Sc
   0.3670430327621668    0.8709827375225555    0.1331730552035380 Sc
   0.1260313679579493    0.6304612852718264    0.1270111227460525 Sc
   0.6196829120049331    0.8752161212757333    0.8754117805914755 Sc
   0.8707790229722858    0.1300384014196052    0.3784504032318972 Sc
   0.8773350744890875    0.3858036015214341    0.1192884972320666 Sc
   0.6297717619775220    0.1289520785954865    0.1271145693051598 Sc
   0.6233019612851101    0.3783814516110353    0.3864256598402229 Sc
   0.8698749081679530    0.6261474569254429    0.8870746381438299 Sc
   0.8712396405247713    0.8739770366221671    0.6185925104330839 Sc
   0.6240947503924942    0.6273745135074023    0.6299582500440420 Sc
   0.3894076452760472    0.1132558870348387    0.1140256074367442 Se
   0.6205649369077195    0.3897589913094610    0.6162939804828794 Se
   0.6088113653549153    0.1103620014129664    0.8762206541263278 Se
   0.3828087287389282    0.3822878542583170    0.3821592924786316 Se
   0.3675914192743098    0.1350616544644655    0.6321362170705547 Se
   0.1348220492142492    0.8679090956806372    0.1368287290359386 Se
   0.1398560629864193    0.1309123357082321    0.8683073549623117 Se
   0.3702290229711146    0.8706957779577297    0.3707090024725485 Se
   0.3881106347592429    0.6171494812993130    0.6198769947462652 Se
   0.6134242241626333    0.8776419996234640    0.1155995597111393 Se
   0.6221118459326013    0.6225451906002099    0.3711099042953139 Se
   0.3913650115051822    0.8931384702713178    0.8828140189276437 Se
   0.3643206083429234    0.6346253548746467    0.1306680678028062 Se
   0.1331027174981952    0.3669210179942541    0.6324511648881332 Se
   0.1325469147474179    0.6310821496125062    0.3663108638525800 Se
   0.3732863629210008    0.3697186617940140    0.8647658961079263 Se
   0.8728753455632046    0.1092684092588479    0.6133971118530771 Se
   0.1171028372329943    0.3801360499819497    0.1207934722079417 Se
   0.1129226329804846    0.1145709969095595    0.3846578814278417 Se
   0.8828787588060342    0.3828847265317736    0.8828796108864988 Se
   0.8716360711324328    0.1332027657861724    0.1338085179466256 Se
   0.6340781183829084    0.8649460233543739    0.6346058255398850 Se
   0.6317392321282082    0.1323018224666964    0.3677577499290954 Se
   0.8591580452132558    0.8664189393611981    0.8678743797462700 Se
   0.8819629768861230    0.6169837445030432    0.1168898169922981 Se
   0.1108842672973321    0.8853217164747053    0.6147864758247700 Se
   0.1152057241330449    0.6187593708547211    0.8806759176948727 Se
   0.8830516963442884    0.8706829226302786    0.3850270114662069 Se
   0.8704476949779418    0.6347044661671869    0.6359439072259950 Se
   0.6345591156982417    0.3697303392813391    0.1316992045452312 Se
   0.6361948542122429    0.6300047459565824    0.8669823440698019 Se
   0.8647664889271490    0.3672559596583435    0.3696158073512072 Se
