Mg7 Sc16 Se32
1.0
  11.1003847944368736    0.0000000000000000    0.0000000000000000
   0.0000000000000000   11.1003847944368736    0.0000000000000000
  -0.0000000000000000   -0.0000000000000000   11.1003847944368736
Mg Sc Se
7 16 32
direct
   0.5013928756920258    0.0045794100894330    0.5111055843107359 Mg
   0.2509084191277331    0.7578217513056394    0.7500259677356305 Mg
   0.5110929182231366    0.5013617576364764    0.9947941987525285 Mg
   0.7569706026027131    0.2319084513838713    0.7508617051411318 Mg
   0.9997062378787427    0.9995287453078555    0.0009099076797096 Mg
   0.7526780490743473    0.7452876247055319    0.2485501606802048 Mg
   0.0035632501294825    0.4982565222547761    0.5047755351512565 Mg
   0.1330954767854298    0.8705542184152685    0.3866623973751417 Sc
   0.3742661726067169    0.1233583833137219    0.8798081936151145 Sc
   0.3690452049519113    0.3789603735767777    0.6332944665013199 Sc
   0.1345445278756142    0.1304583505167357    0.6078232866925073 Sc
   0.1355444050728102    0.3739755121600589    0.8832975739328819 Sc
   0.3711489488623430    0.6348842867306201    0.3643932636734921 Sc
   0.3748890233548813    0.8752210765114915    0.1257774959653302 Sc
   0.1086635551442272    0.6328601715685928    0.1224763986336719 Sc
   0.6309953961177638    0.8722613187014805    0.8707424201332176 Sc
   0.8789661482402236    0.1256964841921818    0.3751614598106729 Sc
   0.8725839461441653    0.3853887851298454    0.1135965310336174 Sc
   0.6357299026664155    0.1256130477940067    0.1232560030512685 Sc
   0.6319263887377391    0.3642519334225751    0.3793591288686394 Sc
   0.8782922875202366    0.6229711708770173    0.8721966356560061 Sc
   0.8825731309708537    0.8838235874809591    0.6127251820960600 Sc
   0.6263745255957427    0.6310071613898431    0.6160140364743659 Sc
   0.3835871861735941    0.1171014113140736    0.1167327083402239 Se
   0.6191391869429634    0.3823649126550383    0.6178348042636237 Se
   0.6005099911351989    0.1073650807923221    0.8770063693393990 Se
   0.3882416613050946    0.3919313584357708    0.3813183465206727 Se
   0.3704446183625290    0.1248785092146870    0.6409060384254042 Se
   0.1362675553468461    0.8588473901289473    0.1285598095937406 Se
   0.1322200168995102    0.1321496637026579    0.8670673899541521 Se
   0.3627672043856375    0.8618817125023193    0.3708243313244229 Se
   0.3779119166321474    0.6272540107848074    0.6256769258629564 Se
   0.6178933061422310    0.8835512412965842    0.1170986076884590 Se
   0.6329347173632658    0.6155363748625365    0.3802754928878559 Se
   0.3868667637941932    0.8863196585746195    0.8801403998590653 Se
   0.3675271741783885    0.6318020018301529    0.1331229250112269 Se
   0.1364212392177091    0.3646347406868843    0.6355929360351515 Se
   0.1318481423598497    0.6442005470229444    0.3709929240336667 Se
   0.3638992873071922    0.3646873307973624    0.8666517491248016 Se
   0.8686549378442286    0.1237497595745770    0.6054575096543401 Se
   0.1170582716757390    0.3829995959799382    0.1174147455081325 Se
   0.1211861384986919    0.1283070685869835    0.3716324827727199 Se
   0.8771136379275274    0.3844932425042470    0.8725009557072201 Se
   0.8613095146230234    0.1479829521905281    0.1287480830636934 Se
   0.6372053173757988    0.8645059044480682    0.6327311491335517 Se
   0.6342447583200548    0.1466259733972634    0.3707712052621300 Se
   0.8664343278227725    0.8686690255663129    0.8681840268744333 Se
   0.8960746199213508    0.6102807332397704    0.1277582007563175 Se
   0.1173442316921904    0.8827858166936337    0.6171062287561139 Se
   0.1181989765959963    0.6223493202386881    0.8836330475871399 Se
   0.8820214666117404    0.8836162885060579    0.3788713646313400 Se
   0.8768756581642567    0.6304271200146604    0.6311686898235480 Se
   0.6354240842414427    0.3688343333649422    0.1415018743427247 Se
   0.6334283145303611    0.6517206414830807    0.8626926505295252 Se
   0.8701568363689821    0.3681615083452017    0.3720503846005976 Se
