Mg7 Sc16 Se32
1.0
  11.1003847944368736    0.0000000000000000    0.0000000000000000
   0.0000000000000000   11.1003847944368736    0.0000000000000000
  -0.0000000000000000   -0.0000000000000000   11.1003847944368736
Mg Sc Se
7 16 32
direct
   0.5000920439889390    0.9993581729455878    0.5024196459899334 Mg
   0.2506540444439956    0.7627656483883123    0.7394955935736417 Mg
   0.5017630839807401    0.4983284404268891    0.9982230115554809 Mg
   0.7502451442489807    0.2504260265285699    0.7492396855287065 Mg
   0.9976560622156035    0.9893837875331678    0.9985939157518137 Mg
   0.7512746805629089    0.7554529295974778    0.2660909628477521 Mg
   0.0347740856929405    0.4701985100219928    0.4689722224009097 Mg
   0.1223621174843840    0.8752472998441239    0.3834579474405416 Sc
   0.3658351282496410    0.1213351399262459    0.8665444661469105 Sc
   0.3847331157021544    0.3861338382889481    0.6334047604567719 Sc
   0.1340905855111923    0.1197056128835398    0.6279963161568215 Sc
   0.1293441844115132    0.3736928116410664    0.8684512178069440 Sc
   0.3685093330647398    0.6197213753446851    0.3782953137102880 Sc
   0.3775114315196579    0.8711430928669026    0.1302714907033775 Sc
   0.1305627105011399    0.6359817946747620    0.1371799676049462 Sc
   0.6206771310975039    0.8710710200053537    0.8750837780986527 Sc
   0.8741378218516140    0.1210325497133256    0.3855810961982635 Sc
   0.8680282711808415    0.3746064181477318    0.1325308887909678 Sc
   0.6238009421382146    0.1352192578626644    0.1343431420418089 Sc
   0.6217717943721003    0.3734013468525905    0.3804460080943045 Sc
   0.8754411675602557    0.6254841836029177    0.8763724702086613 Sc
   0.8716780763328349    0.8779356388323888    0.6230049803312888 Sc
   0.6190209531038250    0.6278669998982978    0.6177447023695473 Sc
   0.3865934503069237    0.1254740530576524    0.1096825331105780 Se
   0.6183090960616067    0.3839336444145231    0.6190041454606670 Se
   0.6195338384353523    0.1240827180718855    0.8916567858516631 Se
   0.3790874910601368    0.3862879432269689    0.3811124126341117 Se
   0.3693977886156956    0.1305996972194458    0.6278356463860348 Se
   0.1293646336098835    0.8751279683354448    0.1473081663506602 Se
   0.1321812456998553    0.1351591222832863    0.8701548643595465 Se
   0.3692889206525403    0.8812562674624848    0.3594258402290632 Se
   0.3853154422658224    0.6230430810033191    0.6102556086261252 Se
   0.6086839858737616    0.8779430964124182    0.1145019304819842 Se
   0.6154349787656263    0.6021661930720282    0.3839934870566112 Se
   0.3757434944313417    0.8783647405795161    0.8820285528735735 Se
   0.3597450244375943    0.6325977770022215    0.1391286869121157 Se
   0.1287667479021740    0.3629203520758069    0.6182519902206294 Se
   0.1335280445230972    0.6393133275468309    0.3741953023269340 Se
   0.3636099487186200    0.3679157756639940    0.8676681273118448 Se
   0.8816594058522786    0.1183742648590741    0.6192501448359451 Se
   0.1253473002118184    0.3841348397780827    0.1065613249001497 Se
   0.1173357926768677    0.1194927582836511    0.3885232809491044 Se
   0.8742988264682022    0.3838536286967245    0.8815300673723199 Se
   0.8684383128340101    0.1336898780170230    0.1315910032939371 Se
   0.6332766860652389    0.8662354253601050    0.6342448609218495 Se
   0.6222832132544549    0.1391937310798422    0.3680099117271527 Se
   0.8795203150560985    0.8788150970150791    0.8656886188901374 Se
   0.8808182770881813    0.6186650672353438    0.1201504756905130 Se
   0.1205422121479547    0.8808119948228068    0.6287617301516731 Se
   0.1085494853364315    0.6197283723636597    0.8827517558791759 Se
   0.8833036262769968    0.8799049565030168    0.3853698021742042 Se
   0.8700291577843871    0.6279211318447269    0.6326010625464242 Se
   0.6290970249763598    0.3653986066958684    0.1364854358342098 Se
   0.6271897902694358    0.6297594444936325    0.8704800354953190 Se
   0.8622376615979841    0.3649436622112157    0.3689007627609396 Se
