Mg7 Sc16 Se32
1.0
  11.1003847944368736    0.0000000000000000    0.0000000000000000
   0.0000000000000000   11.1003847944368736    0.0000000000000000
  -0.0000000000000000   -0.0000000000000000   11.1003847944368736
Mg Sc Se
7 16 32
direct
   0.4999279049209841    0.0001664026902354    0.4965108503397777 Mg
   0.2512068817413385    0.7565158468655939    0.7511182790621463 Mg
   0.5019132318842414    0.4976946092864555    0.9994665963806669 Mg
   0.7403380852783215    0.2510937797465993    0.7522325296238946 Mg
   0.1671133660547627    0.1714946425330830    0.1823282142857172 Mg
   0.7459537944318703    0.7423829920559792    0.2458033035633137 Mg
   0.0025430299134372    0.4957486372564258    0.4947463754111167 Mg
   0.1238185931477880    0.8781071819505336    0.3688516884501642 Sc
   0.3754487677217276    0.1299605364126851    0.8799843211198095 Sc
   0.3744828007794592    0.3760035665848467    0.6237453499756672 Sc
   0.1260270697777913    0.1245693648255672    0.6253145578573961 Sc
   0.1248703922850398    0.3751709275674910    0.8749768914977284 Sc
   0.3762773064870361    0.6233117089013271    0.3738911070862362 Sc
   0.3683850393817786    0.8763254167109984    0.1269442269215374 Sc
   0.1247859521691553    0.6246218263436696    0.1238154679925055 Sc
   0.6286922823077938    0.8660718193460475    0.8768810580373826 Sc
   0.8838925947232439    0.1255733105983479    0.3786560249564189 Sc
   0.8700573134566376    0.3740604741624045    0.1255012568783865 Sc
   0.6256167433506906    0.1264027443370998    0.1252799362392313 Sc
   0.6244610690648057    0.3744548295889510    0.3752746322442999 Sc
   0.8699838307851162    0.6198132675246215    0.8698856054063601 Sc
   0.8753914035808626    0.8796783042078208    0.6252220928257958 Sc
   0.6277245079827873    0.6241982238075956    0.6216130940633774 Sc
   0.3808669691208274    0.1235076974027237    0.1213391487360811 Se
   0.6157869413817882    0.3820333810445811    0.6163952101252479 Se
   0.6118232560255458    0.1150407728627845    0.8814041003639562 Se
   0.3808477644948829    0.3778832187898556    0.3790295822806770 Se
   0.3655378911058621    0.1333884933377922    0.6336423602824324 Se
   0.1318368138042673    0.8715827892111642    0.1409057090041808 Se
   0.1324553273946854    0.1320654750724972    0.8662191060030934 Se
   0.3670201698857751    0.8678632735757327    0.3719069246416178 Se
   0.3846968013625535    0.6169528929322255    0.6245950944007682 Se
   0.6232528642335586    0.8776107829657923    0.1102295607326184 Se
   0.6087782319351307    0.6130439461462310    0.3857005114481141 Se
   0.3826781684558697    0.8720507922483153    0.8821273390171269 Se
   0.3711643327682780    0.6243376799718633    0.1290093323568935 Se
   0.1371788345456449    0.3689718524971179    0.6328290512251318 Se
   0.1382222934673321    0.6400627508052393    0.3704522572300055 Se
   0.3669832677579563    0.3669522665424126    0.8669855897612874 Se
   0.8892433757142297    0.1166904692574580    0.6166341000327555 Se
   0.1132688828418956    0.3794129399521695    0.1154149259457656 Se
   0.1261287348907263    0.1161269827893834    0.3868728968013744 Se
   0.8813239808474690    0.3778306933490650    0.8841415127429971 Se
   0.8676441521123854    0.1348088182917831    0.1347659441269470 Se
   0.6317034795254451    0.8670108598012652    0.6327718488997169 Se
   0.6270759484578212    0.1370006017484893    0.3609624398185929 Se
   0.8670658584983086    0.8670113834732655    0.8668980253674159 Se
   0.8859824539967180    0.6106169895565269    0.1113361461460083 Se
   0.1129255969709785    0.8791506211584053    0.6090622113818851 Se
   0.1243983929533299    0.6234493364886603    0.8867810744514132 Se
   0.8831588461385519    0.8899764574995763    0.3746078759221386 Se
   0.8660073751096243    0.6326485601384464    0.6416026621894610 Se
   0.6423009610894584    0.3696712571656902    0.1296451368055358 Se
   0.6323098333590269    0.6296683454455121    0.8714790113004410 Se
   0.8650929921388619    0.3695091847473493    0.3627403455501531 Se
