Mg7 Sc16 Se32
1.0
  11.1003847944368736    0.0000000000000000    0.0000000000000000
   0.0000000000000000   11.1003847944368736    0.0000000000000000
  -0.0000000000000000   -0.0000000000000000   11.1003847944368736
Mg Sc Se
7 16 32
direct
   0.5020285785668968    0.0003605416908611    0.5017531585054146 Mg
   0.2530211952690004    0.6809568221866368    0.6759432983949039 Mg
   0.5032796064901156    0.4991468184165506    0.0022340972630427 Mg
   0.7488241280446090    0.2502302858468496    0.7490176382966237 Mg
   0.0002944317850101    0.9996470355671503    0.0003461706820864 Mg
   0.7523342818485286    0.7518737338010523    0.2532370127585557 Mg
   0.9976227296316140    0.5028314127968128    0.5025261122970867 Mg
   0.1246620668540400    0.8747848534388227    0.3757116308719849 Sc
   0.3761490111365332    0.1252778505152585    0.8737597167509400 Sc
   0.3735819126807948    0.3747016578474738    0.6250088858475565 Sc
   0.1261271293177270    0.1254963337956169    0.6279523191472287 Sc
   0.1247895566637616    0.3748284350795127    0.8744001828690273 Sc
   0.3738590563284850    0.6275551825727677    0.3770555951767414 Sc
   0.3749615800042007    0.8750097188303397    0.1250209698693681 Sc
   0.1236046916132198    0.6237923198982472    0.1244266064862249 Sc
   0.6250587884237162    0.8749944693145978    0.8749507646589358 Sc
   0.8753299671152914    0.1247273048380800    0.3749998877697419 Sc
   0.8736652465174392    0.3780932698141650    0.1279626204872802 Sc
   0.6230435621827594    0.1229607823574277    0.1230826403509621 Sc
   0.6245820840026372    0.3757264060141652    0.3756071214590639 Sc
   0.8762980803333446    0.6234683809338483    0.8722761482562795 Sc
   0.8758840744894670    0.8729574113404245    0.6284353448157066 Sc
   0.6240459717996537    0.6244212534432454    0.6251186451383977 Sc
   0.3835431240130051    0.1155851178912422    0.1169258296442148 Se
   0.6176598685277757    0.3848469585494079    0.6173908333774200 Se
   0.6207410858290173    0.1179392869340333    0.8811539173832357 Se
   0.3828850127333592    0.3824197662296948    0.3857600659107653 Se
   0.3667291689489954    0.1338471347607837    0.6340647632749811 Se
   0.1330592021978809    0.8707763391564507    0.1317386874346812 Se
   0.1329548671814614    0.1326238083711671    0.8670502959427373 Se
   0.3689199175380183    0.8682299945500470    0.3696394862937918 Se
   0.3842837457817891    0.6135201393845312    0.6157244981737678 Se
   0.6132632601244103    0.8817912135502011    0.1160710775402878 Se
   0.6169735505957660    0.6133115383602021    0.3834294642864770 Se
   0.3842066159024882    0.8796964382931105    0.8833683511066619 Se
   0.3652097717401782    0.6346214511922443    0.1328127638515819 Se
   0.1339539254809770    0.3692920729010806    0.6332649880718439 Se
   0.1291169845857671    0.6343988989100877    0.3690287148939025 Se
   0.3662774722003955    0.3674653348923120    0.8632176897045404 Se
   0.8824487752932793    0.1155741327011188    0.6171206499886369 Se
   0.1187358855051974    0.3843740392316664    0.1171020314288112 Se
   0.1155886631471030    0.1165908699856529    0.3805804782871597 Se
   0.8809234957341801    0.3827345180689920    0.8842330021680407 Se
   0.8675032688791893    0.1318526193319153    0.1331207127668825 Se
   0.6345281140250879    0.8681126402210931    0.6330935286622502 Se
   0.6328519752467422    0.1328319648910967    0.3670329084907605 Se
   0.8703001436505714    0.8680897563593262    0.8676049362295207 Se
   0.8856237118819121    0.6182120999842844    0.1169285893028278 Se
   0.1173169860971706    0.8811469736426280    0.6197051405128936 Se
   0.1199650219620264    0.6165445880533883    0.8851838686503726 Se
   0.8812686228333025    0.8861013268299426    0.3844545780952984 Se
   0.8683988326542244    0.6335854752239355    0.6303056557423574 Se
   0.6324455742160917    0.3657168339221211    0.1324395291244556 Se
   0.6364506215400068    0.6321355770270366    0.8686084537954479 Se
   0.8658162180341545    0.3699974548282255    0.3698507826230645 Se
