Mg7 Sc16 Se32
1.0
  11.1003847944368736    0.0000000000000000    0.0000000000000000
   0.0000000000000000   11.1003847944368736    0.0000000000000000
  -0.0000000000000000   -0.0000000000000000   11.1003847944368736
Mg Sc Se
7 16 32
direct
   0.5009927524964156    0.9997564672155006    0.5045605385964496 Mg
   0.2505313443395050    0.2497955200450430    0.2498206171213650 Mg
   0.5057459915996986    0.4903976776378370    0.0042933201374863 Mg
   0.7483529930877705    0.2509272127588300    0.7520927333062016 Mg
   0.9943426576283229    0.9945094466459481    0.0125335206168089 Mg
   0.7437984614238624    0.7468074661961259    0.2531798717201657 Mg
   0.9995883713924675    0.4869196771738420    0.4975143444720909 Mg
   0.1243075018839437    0.8802650695487062    0.3791262636685183 Sc
   0.3750154404343966    0.1250618155350144    0.8748840817406951 Sc
   0.3907481251014603    0.3792308308732760    0.6207671623734689 Sc
   0.1245950648612355    0.1303770189218990    0.6191290918950501 Sc
   0.1268701908669232    0.3750101625898263    0.8742757056413670 Sc
   0.3720904701509521    0.6227486132610932    0.3760485539204056 Sc
   0.3765380549512386    0.8753990839806561    0.1244877500611638 Sc
   0.1171443183865050    0.6258990102226314    0.1370529139701270 Sc
   0.6213336044684106    0.8851554632848750    0.8826402827420292 Sc
   0.8751657069875634    0.1368325579454231    0.3665980767440524 Sc
   0.8819215104194228    0.3717554615837252    0.1285955668823565 Sc
   0.6321312075205352    0.1389113738806944    0.1202387306429086 Sc
   0.6220549053859039    0.3851160754342988    0.3874189714104413 Sc
   0.8726298248153201    0.6285521707764720    0.8739731288074976 Sc
   0.8799359425324272    0.8645604745774041    0.6325015111968494 Sc
   0.6302624889497129    0.6169856510390226    0.6334772339664526 Sc
   0.3857704300088897    0.1066659549564032    0.1177664129754632 Se
   0.6176543876439691    0.3860252066948927    0.6156813242078629 Se
   0.6134638246676178    0.1190015476985540    0.8710030528317119 Se
   0.3887985919934014    0.3783013992429874    0.3807739461238264 Se
   0.3722222677907976    0.1311104407434852    0.6231979864415861 Se
   0.1342102953372036    0.8675367307613487    0.1310066338672202 Se
   0.1422279791387308    0.1264945599581961    0.8744852010559840 Se
   0.3701898839470136    0.8683107512617665    0.3646116491714583 Se
   0.3848404152907459    0.6205677606258873    0.6294865499838745 Se
   0.6132936554570613    0.8808708928458260    0.1173928560423814 Se
   0.6126463570301302    0.6307277164930356    0.3851616754196657 Se
   0.3833082513754982    0.8827560785148402    0.8825331842926479 Se
   0.3651831734788554    0.6319891950865024    0.1332804693862567 Se
   0.1300865094068106    0.3580738768321348    0.6338690987352843 Se
   0.1387861413864987    0.6357662706085326    0.3830652280562741 Se
   0.3711660923520905    0.3568226661060979    0.8657873098684322 Se
   0.8682630689013592    0.1095839362213220    0.6160695743744571 Se
   0.1247774143422799    0.3747783034348139    0.1153824170907923 Se
   0.1204479890213828    0.1241285970565996    0.3967526376463139 Se
   0.8880253459977839    0.3832064310170609    0.8829294723212675 Se
   0.8801562922784679    0.1316296532500116    0.1253432188226856 Se
   0.6327201536303165    0.8672914125643592    0.6327965316262508 Se
   0.6372075574656975    0.1224154287362111    0.3675525799948434 Se
   0.8783882472934615    0.8780306118577134    0.8596845339200038 Se
   0.8663688944812163    0.6149984785163358    0.1147924249223836 Se
   0.1173810710351502    0.8834376617099809    0.6170638122701566 Se
   0.1172378415975061    0.6166019333508701    0.8797157216377024 Se
   0.8829513758186220    0.8832796691258525    0.3838761195570310 Se
   0.8689488084888254    0.6333599404928850    0.6326249013778651 Se
   0.6317462805541164    0.3692425847090181    0.1380666491799472 Se
   0.6337188706663046    0.6344068689395427    0.8672407705378522 Se
   0.8558182477725639    0.3630463368921663    0.3691288250856434 Se
