Mg7 Sc16 Se32
1.0
  11.1003847944368736    0.0000000000000000    0.0000000000000000
   0.0000000000000000   11.1003847944368736    0.0000000000000000
  -0.0000000000000000   -0.0000000000000000   11.1003847944368736
Mg Sc Se
7 16 32
direct
   0.3141013363479622    0.1850896692751683    0.3270663246752294 Mg
   0.2530905230719510    0.7519516513321395    0.7452467078603671 Mg
   0.4999632982976255    0.5004332289375406    0.9998546695178309 Mg
   0.7544369669257539    0.2487877821192627    0.7412974762546960 Mg
   0.0028033074962472    0.0022157276670726    0.9931728607515942 Mg
   0.7488327709293047    0.7504632267044508    0.2464750224375777 Mg
   0.0031887612220391    0.4990393712403055    0.4984056359236026 Mg
   0.1231998748751148    0.8715866402299336    0.3722313665972363 Sc
   0.3740866838713176    0.1247222539553802    0.8758271956274783 Sc
   0.3712798183934936    0.3779742009727011    0.6214647894181573 Sc
   0.1284510951965853    0.1212966658023276    0.6316727416382297 Sc
   0.1257420836969912    0.3723630455677323    0.8708675725944165 Sc
   0.3765381855559306    0.6226530633126370    0.3768407940131537 Sc
   0.3805561473130459    0.8688441626511403    0.1313864104432549 Sc
   0.1212455866425289    0.6242721591768297    0.1274253090543214 Sc
   0.6222310437327595    0.8816617142882897    0.8728763980008688 Sc
   0.8713508711113097    0.1246731558332184    0.3767955838615707 Sc
   0.8707213991249821    0.3799880005768729    0.1281029040377288 Sc
   0.6259131048167135    0.1281202218334023    0.1236298016018001 Sc
   0.6306689488584633    0.3790202412235995    0.3753879627057650 Sc
   0.8686609327733934    0.6204928917001298    0.8718349781077294 Sc
   0.8716314819240489    0.8841321974532523    0.6257400652680055 Sc
   0.6309182917276810    0.6257417095796668    0.6166835418459753 Sc
   0.3827199545774902    0.1163638471963103    0.1170859079389251 Se
   0.6188934582787750    0.3810927070311073    0.6258815124595312 Se
   0.6137643918046758    0.1208501749937085    0.8889551193879544 Se
   0.3832012964596506    0.3814647700647493    0.3845074188370852 Se
   0.3737786512570246    0.1375728046243645    0.6397583986151040 Se
   0.1359305301747768    0.8677159353283271    0.1307783125590359 Se
   0.1327108926264212    0.1329069496574306    0.8669969441810177 Se
   0.3696581398585491    0.8626900026288262    0.3750466746527735 Se
   0.3815385556701066    0.6236108676010125    0.6191795398415879 Se
   0.6145062162201392    0.8832221879196271    0.1162865773825714 Se
   0.6216141055084589    0.6199222461584158    0.3767669875557692 Se
   0.3846915765791517    0.8793700364439198    0.8799749158238771 Se
   0.3739774129771880    0.6370899978291366    0.1258729329737372 Se
   0.1345998971323815    0.3573632355841804    0.6337683897645016 Se
   0.1295254222968024    0.6335231345678790    0.3679911777478669 Se
   0.3675890829973316    0.3672589826734405    0.8717095534995094 Se
   0.8826229715773193    0.1219440164811598    0.6147715071120020 Se
   0.1092969422412081    0.3890837837807121    0.1167685771306941 Se
   0.1160102315192039    0.1220483457280077    0.3893896937389801 Se
   0.8791073806554397    0.3857811294720938    0.8828025883420398 Se
   0.8706134053587393    0.1260513703552861    0.1287515863339634 Se
   0.6327744865219020    0.8682480930392269    0.6327342375258052 Se
   0.6277462374444496    0.1343070819602893    0.3644724143568042 Se
   0.8594817468625373    0.8667253219829625    0.8694352776764815 Se
   0.8821895559620823    0.6115056968660064    0.1101965486413789 Se
   0.1189920640294489    0.8820546910362507    0.6160368775417026 Se
   0.1223214110563644    0.6195922590409064    0.8769019501406679 Se
   0.8818587224788260    0.8814959264365583    0.3820648262243388 Se
   0.8711367725738978    0.6355867088250108    0.6308304266666220 Se
   0.6305862736037884    0.3685902623218051    0.1261629792011121 Se
   0.6405632006894874    0.6259487362969061    0.8688174306612594 Se
   0.8671329878998776    0.3671307013842143    0.3671318749564324 Se
