Mg7 Sc16 Se32
1.0
  11.1003847944368736    0.0000000000000000    0.0000000000000000
   0.0000000000000000   11.1003847944368736    0.0000000000000000
  -0.0000000000000000   -0.0000000000000000   11.1003847944368736
Mg Sc Se
7 16 32
direct
   0.4992320840107722    0.0012779212835486    0.5002980407777703 Mg
   0.2519634083684202    0.7473976751613203    0.7529916884854825 Mg
   0.4990601463464049    0.5036551880853862    0.9993749141842962 Mg
   0.7510825003908469    0.2475071744947132    0.7477659829694802 Mg
   0.0002122343107044    0.0037001197741508    0.9999448755895519 Mg
   0.7502746631221079    0.7497898261907803    0.2505117998861714 Mg
   0.0018971108655275    0.5011437077648097    0.4988218656603274 Mg
   0.1256883966876362    0.8760081460018444    0.3749573657662014 Sc
   0.3774797010689526    0.1262355536949220    0.8739260674773163 Sc
   0.3738948743290269    0.3763724421503134    0.6243497708103988 Sc
   0.1268925945769936    0.1257755890411416    0.6225511507534748 Sc
   0.1234027845915117    0.3778185696663007    0.8762978487558037 Sc
   0.3767622662685217    0.6220638327674421    0.3755743366725351 Sc
   0.3759944168207055    0.8747294133645259    0.1229711696222316 Sc
   0.1250445606854177    0.6250088222933720    0.1247859681473701 Sc
   0.6253284243631279    0.8777934829895302    0.8734989216135277 Sc
   0.8745784572374027    0.1253695061409851    0.3749430343799475 Sc
   0.8749997637174364    0.3753862001846016    0.1247943393287490 Sc
   0.6217628076106647    0.1228987992339732    0.1254725657572804 Sc
   0.6225642218558902    0.3724119292281420    0.3752652804294123 Sc
   0.8772072027972141    0.6261413795092334    0.8754214023457761 Sc
   0.8761649951294217    0.8735725931675740    0.6238684671909213 Sc
   0.6243969865787834    0.6236485650380021    0.6243682716065585 Sc
   0.3816406076619703    0.1153939325725110    0.1172803041003467 Se
   0.6197935351089977    0.3832754515385521    0.6191701130554371 Se
   0.6177004103101652    0.1173809956854614    0.8830673935219576 Se
   0.3848853614220681    0.3823798455726077    0.3821046712378385 Se
   0.3697210961187106    0.1350504770944370    0.6311819580234782 Se
   0.1328671587891518    0.8671397251636112    0.1328818246051911 Se
   0.1339777531297699    0.1302259042380584    0.8637476456954951 Se
   0.3674598743308635    0.8669973552139539    0.3670717867685108 Se
   0.3832951361717897    0.6152944688387049    0.6180676340680201 Se
   0.6165481970964078    0.8808303072692462    0.1179680821149219 Se
   0.6206189565937896    0.6178723919748768    0.3837895285020354 Se
   0.3829545003904576    0.8828217296270414    0.8830501116688675 Se
   0.3666658400611683    0.6329546324320610    0.1332999893381710 Se
   0.1288824934925897    0.3661967255903549    0.6313990422704808 Se
   0.1330047584735390    0.6339667762121337    0.3660955883298458 Se
   0.3674415363839443    0.3673435701037491    0.8671793137938905 Se
   0.8829308451919211    0.1172822457937738    0.6153964121063641 Se
   0.1171748955687867    0.3830641554355007    0.1169484125470450 Se
   0.1144650496081935    0.1169074718894533    0.3813351455517360 Se
   0.8800114334457373    0.3845558396865451    0.8817723359881185 Se
   0.8651619921559857    0.1329663126996010    0.1291864683837913 Se
   0.6336634187621354    0.8668401808607207    0.6366134388870432 Se
   0.6326374020770404    0.1326913324944140    0.3668126032711997 Se
   0.8679451075347461    0.8652820930589556    0.8642583522719544 Se
   0.8821525013432767    0.6150993710990994    0.1203938108843537 Se
   0.1182520765004326    0.8822616386862434    0.6174325723944918 Se
   0.1166130336766922    0.6146291379290151    0.8802324900892887 Se
   0.8821706745363637    0.8807663899636013    0.3841737178991361 Se
   0.8634129227187149    0.6336181397252222    0.6350562820215554 Se
   0.6324110249607953    0.3696695139301296    0.1313508509661228 Se
   0.6351739957976733    0.6329083285976291    0.8666443814558856 Se
   0.8643837500154211    0.3684322063944656    0.3650509070067881 Se
