Mg7 Sc16 Se32
1.0
  11.1003847944368736    0.0000000000000000    0.0000000000000000
   0.0000000000000000   11.1003847944368736    0.0000000000000000
  -0.0000000000000000   -0.0000000000000000   11.1003847944368736
Mg Sc Se
7 16 32
direct
   0.1744565410596272    0.2887008923943580    0.2200854509044157 Mg
   0.2455743470119361    0.7453632650742278    0.7419094829333436 Mg
   0.5028051765824193    0.5073031704657476    0.9927760579227146 Mg
   0.7475968547444219    0.2492199558739138    0.7508533558187307 Mg
   0.9957277199173400    0.9954073838609988    0.9971617977981416 Mg
   0.7482041997441481    0.7510508042830093    0.2528415173305505 Mg
   0.9974401536346079    0.5012259778767169    0.5001786425766582 Mg
   0.1269918292175020    0.8722417523032486    0.3728105381607991 Sc
   0.3734781488824044    0.1236866922007706    0.8764461120953412 Sc
   0.3763566038326706    0.3755839750057541    0.6252586259487195 Sc
   0.1185557997736873    0.1265664633757836    0.6201401607403370 Sc
   0.1323818482327624    0.3789636464979977    0.8756231352134550 Sc
   0.3766455314943722    0.6233945313883980    0.3686736171619739 Sc
   0.3675765310368652    0.8766280609811266    0.1325551943221660 Sc
   0.1316761315522263    0.6278449490351885    0.1308787179136575 Sc
   0.6257070950966573    0.8705990773272720    0.8735760084165256 Sc
   0.8698372322209627    0.1230670157996107    0.3831210701638540 Sc
   0.8725829795279882    0.3806909484476649    0.1246898737272935 Sc
   0.6279080814909209    0.1265203786157779    0.1272104563425500 Sc
   0.6270530223509272    0.3742967094469317    0.3776513627737226 Sc
   0.8818729166609972    0.6233598123988476    0.8731673612130622 Sc
   0.8743711473660500    0.8805256311788733    0.6242662758744218 Sc
   0.6249597266906175    0.6248179741949261    0.6245962774410128 Sc
   0.3880721328625250    0.1109448086023563    0.1207350170198515 Se
   0.6117468116963957    0.3885020372357421    0.6170263931609524 Se
   0.6171085621497012    0.1172093736365069    0.8830567721476476 Se
   0.3848744429937748    0.3830192992333695    0.3780015980109938 Se
   0.3690516548293174    0.1245401903268938    0.6390715325679673 Se
   0.1345488074003692    0.8721568330924483    0.1402562441891189 Se
   0.1301387621532731    0.1279516148810922    0.8732531029450762 Se
   0.3631088028395488    0.8693297327448942    0.3589160033542720 Se
   0.3866445507644570    0.6209604736887249    0.6239406891581490 Se
   0.6161573151038021    0.8811736538880898    0.1070065793141193 Se
   0.6165130800119142    0.6176055295240044    0.3831342096354700 Se
   0.3827260173958197    0.8830921435334772    0.8830884687723710 Se
   0.3712493979781862    0.6333390897119425    0.1351990974789802 Se
   0.1300134686780580    0.3626516616369850    0.6302852165577946 Se
   0.1275554706872283    0.6333382682226418    0.3597858163119604 Se
   0.3680648098708899    0.3698922532700474    0.8640164512571185 Se
   0.8849765636983152    0.1172556158645157    0.6231062976416647 Se
   0.1158441681440476    0.3887138528187481    0.1148837248038865 Se
   0.1128148204578905    0.1197366328900912    0.3864738285355759 Se
   0.8773915260857588    0.3801196499462275    0.8821873820664432 Se
   0.8657462305797370    0.1282964643624492    0.1289491091137766 Se
   0.6350409631595870    0.8663584326165851    0.6378275430559553 Se
   0.6377692894873331    0.1351883351308281    0.3676572488784801 Se
   0.8674229591933407    0.8671918087068932    0.8675647564621231 Se
   0.8827032199198408    0.6171661636102607    0.1174165028025029 Se
   0.1189137398763506    0.8781857717568774    0.6226081627353123 Se
   0.1174810469705183    0.6165274961676332    0.8844158789513208 Se
   0.8834246924101280    0.8833356943809610    0.3827446148427976 Se
   0.8689700015077637    0.6315172155945773    0.6352789014888857 Se
   0.6323904490210477    0.3709926308927850    0.1332363680958316 Se
   0.6331905514698813    0.6335157083421123    0.8669122505974363 Se
   0.8692233260378456    0.3617858196529013    0.3590325282934315 Se
