Mg7 Sc16 Se32
1.0
  11.1003847944368736    0.0000000000000000    0.0000000000000000
   0.0000000000000000   11.1003847944368736    0.0000000000000000
  -0.0000000000000000   -0.0000000000000000   11.1003847944368736
Mg Sc Se
7 16 32
direct
   0.5058865929410854    0.0002774009854734    0.5033912439590273 Mg
   0.2512757199380238    0.7529303375399869    0.7486489695437952 Mg
   0.5003720501078387    0.5011424640625145    0.9999934117764291 Mg
   0.7517968828580954    0.2495678798319210    0.7487558922873465 Mg
   0.0237081584318403    0.0354210678721988    0.0411146906637013 Mg
   0.7505939094055485    0.7507005397821995    0.2496668752908088 Mg
   0.9994601585507095    0.5023009900841875    0.4998090539837240 Mg
   0.1259202859269408    0.8743247909112152    0.3770205586212712 Sc
   0.3737902351738537    0.1234903683932196    0.8761341540659722 Sc
   0.3744845709003671    0.3677053437993756    0.6278932474428132 Sc
   0.1201675911816057    0.1251577269688069    0.6190691174057422 Sc
   0.1266905005085753    0.3773579339629126    0.8743519114576880 Sc
   0.3744056889501034    0.6285054673288734    0.3704519370663518 Sc
   0.3678987446162145    0.8681844721507095    0.1282135898461583 Sc
   0.1218459015765422    0.6227287653427744    0.1273807054769449 Sc
   0.6233344231979785    0.8741806767667492    0.8787429134239761 Sc
   0.8799596268855229    0.1310017685209497    0.3690929065023721 Sc
   0.8751956416790048    0.3724709350109203    0.1339983219176051 Sc
   0.6250669066282678    0.1234691195314431    0.1247782525521443 Sc
   0.6340342799870781    0.3782202923203774    0.3767451409702692 Sc
   0.8760825857986811    0.6256855375565101    0.8733961121265347 Sc
   0.8742640364466381    0.8760697042954623    0.6238040204934587 Sc
   0.6153324941105841    0.6240186744812195    0.6230713002764526 Sc
   0.3841929994923524    0.1165685915586491    0.1161107105292770 Se
   0.6187727784936140    0.3881820639203186    0.6201991244965905 Se
   0.6192471399803436    0.1203283328145339    0.8819149858064336 Se
   0.3793675998834335    0.3820159620991896    0.3743739506593049 Se
   0.3659505150028126    0.1281916596368325    0.6295453985863202 Se
   0.1320300545888057    0.8631214794356921    0.1318162710451427 Se
   0.1327815852648118    0.1329127119596615    0.8672785391412832 Se
   0.3681287740181478    0.8637832487356650    0.3685341552329536 Se
   0.3887595445723461    0.6111249049690262    0.6174931976738839 Se
   0.6156414584985342    0.8878430020212359    0.1201978218439709 Se
   0.6099501182170284    0.6093339247492682    0.3817084077679666 Se
   0.3819210706246112    0.8846112554291395    0.8848890018934417 Se
   0.3678097905562085    0.6331231205401952    0.1322434498897174 Se
   0.1336366867266389    0.3672734127877311    0.6315150746064901 Se
   0.1255556867571567    0.6389847135575566    0.3639500037043841 Se
   0.3731773038010922    0.3728645077656295    0.8676152397879722 Se
   0.8775475537022789    0.1122128885043649    0.6154528596169554 Se
   0.1142672819443879    0.3865384414541877    0.1219516061139223 Se
   0.1214583422421526    0.1156205338348021    0.3825438124540272 Se
   0.8784579008703086    0.3895014425979255    0.8868291378820529 Se
   0.8650258487390095    0.1338049626839807    0.1289329909285941 Se
   0.6425156151052427    0.8710156217943260    0.6321093773191258 Se
   0.6316351376834879    0.1329511819976112    0.3696862950050784 Se
   0.8667611382728627    0.8689014050932513    0.8699998865425240 Se
   0.8920236001973699    0.6140875493914633    0.1165903568966479 Se
   0.1115919685088446    0.8809121341858075    0.6137485327815261 Se
   0.1187035205857474    0.6136152040607137    0.8811066090932284 Se
   0.8828503660745194    0.8820080818110073    0.3824535620038692 Se
   0.8618134598004675    0.6357503922478934    0.6366397557415772 Se
   0.6405015101369875    0.3679848547329355    0.1310189680016638 Se
   0.6282628597981303    0.6347074485064483    0.8708296110163027 Se
   0.8736751244849260    0.3667393690345828    0.3706401427706516 Se
