Mg7 Sc16 Se32
1.0
  11.1003847944368736    0.0000000000000000    0.0000000000000000
   0.0000000000000000   11.1003847944368736    0.0000000000000000
  -0.0000000000000000   -0.0000000000000000   11.1003847944368736
Mg Sc Se
7 16 32
direct
   0.4958212539756569    0.0023486564598160    0.5191920775402854 Mg
   0.2469828637082906    0.7435141702464462    0.7511733195439296 Mg
   0.5015531106298831    0.4954539091464261    0.0077777087424470 Mg
   0.7490915023917188    0.2532946888465467    0.7519139121153978 Mg
   0.9905703632137359    0.0031460221986798    0.9927007565819937 Mg
   0.7335867951580265    0.7440994632097125    0.2415168436041768 Mg
   0.2372771945121226    0.2357711548570604    0.1848051049765626 Mg
   0.1271663684729314    0.8731445230945358    0.3670146324836454 Sc
   0.3697676104294364    0.1356325971450361    0.8746488585199412 Sc
   0.3731231299205058    0.3797609991457467    0.6264256394711697 Sc
   0.1341283257321259    0.1253370517011390    0.6316317926200634 Sc
   0.1243395061694620    0.3631284268747140    0.8881092136052104 Sc
   0.3592505888754283    0.6181582905474486    0.3717062435405947 Sc
   0.3755104024509501    0.8743232441249446    0.1251324225634744 Sc
   0.1340517289054482    0.6295996118003864    0.1173083303442051 Sc
   0.6390276645225990    0.8742886166531048    0.8641848520187810 Sc
   0.8892907901931474    0.1364033630366718    0.3828462018207319 Sc
   0.8723567350070994    0.3749972804504701    0.1201840963381730 Sc
   0.6217339084762941    0.1331417839640731    0.1181250476655758 Sc
   0.6246420307981889    0.3791403645199044    0.3704409712913747 Sc
   0.8800989574915857    0.6192654625032463    0.8761020783492277 Sc
   0.8662458743060014    0.8893533456116528    0.6141063420444950 Sc
   0.6264616048691724    0.6214811482331719    0.6252214534144575 Sc
   0.3783424558772313    0.1202458059122392    0.1200625925734495 Se
   0.6062409262875833    0.3919849728934263    0.6113219715271005 Se
   0.6280425238755689    0.1190778989353988    0.8806343096336138 Se
   0.3779068774858417    0.3923601095755020    0.3842240506603669 Se
   0.3722613251055670    0.1312915615560328    0.6280921793301136 Se
   0.1346703803926754    0.8657721022649423    0.1326690371566615 Se
   0.1177069878899502    0.1356880777261301    0.8648161976500850 Se
   0.3691716804728596    0.8599134471117638    0.3712156227326074 Se
   0.3902897132593343    0.6239961082459485    0.6274969271821357 Se
   0.6189727098775966    0.8801686931105664    0.1183716846541003 Se
   0.6132205715033985    0.6146449870398252    0.3860379232991552 Se
   0.3867711519636864    0.8920250408980704    0.8817991403048290 Se
   0.3640573187151773    0.6392324711855975    0.1274355378144826 Se
   0.1282019157541035    0.3545581369819839    0.6250453716107293 Se
   0.1220897958968201    0.6307625416718244    0.3764508851346414 Se
   0.3610571235622109    0.3606536325029568    0.8633042914256791 Se
   0.8846085674775916    0.1196660458506712    0.6239101391140713 Se
   0.1130381089420142    0.3837277734673858    0.1166881497461663 Se
   0.1175311258612628    0.1170833065666906    0.3831607739489440 Se
   0.8846115406214585    0.3988092185109606    0.8840531650244510 Se
   0.8712756510361881    0.1364328701882762    0.1338326336493684 Se
   0.6367458051503624    0.8741054583389078    0.6439111381805923 Se
   0.6338802526230630    0.1313071516144248    0.3784955543163277 Se
   0.8621736472521555    0.8617674618821910    0.8772013321791861 Se
   0.8832929745615522    0.6191654141327093    0.1196314201815606 Se
   0.1066715768708589    0.8830227669027362    0.6294427025885634 Se
   0.1171321166453283    0.6166411878192291    0.8814310884978306 Se
   0.8840513244263597    0.8812699391811266    0.3781148356298840 Se
   0.8684515706394819    0.6315527597204295    0.6244526504012964 Se
   0.6137163112346711    0.3605220356569543    0.1340962783186979 Se
   0.6301609533023868    0.6311045905487490    0.8519628993558929 Se
   0.8654228674463079    0.3735326439140287    0.3571353665425956 Se
