Mg7 Sc16 Se32
1.0
  11.1003847944368736    0.0000000000000000    0.0000000000000000
   0.0000000000000000   11.1003847944368736    0.0000000000000000
  -0.0000000000000000   -0.0000000000000000   11.1003847944368736
Mg Sc Se
7 16 32
direct
   0.4996149040563477    0.9991314212901669    0.5007537751068843 Mg
   0.2531256822279518    0.7467438121743807    0.7482706285692166 Mg
   0.4982474470153309    0.5024447253925312    0.0033621526783100 Mg
   0.7505794836083295    0.2522258953389929    0.7500958276425256 Mg
   0.1214564334528769    0.1778239898916457    0.1669118774365120 Mg
   0.7505441289493313    0.7478558914871805    0.2495059791697256 Mg
   0.9968207685642519    0.4952894112605481    0.4982996463635876 Mg
   0.1259680688025357    0.8704379503512594    0.3763540773292615 Sc
   0.3800545433232241    0.1278787632687857    0.8760648858065139 Sc
   0.3738027550257877    0.3776604478598278    0.6258084594744012 Sc
   0.1271233354782891    0.1236987804989145    0.6292788256721888 Sc
   0.1241152376616067    0.3740378597795234    0.8691208910598744 Sc
   0.3748930728519133    0.6246559148894638    0.3765740886119849 Sc
   0.3712814621503738    0.8693224519657023    0.1274594411673479 Sc
   0.1253163465082973    0.6227809429674468    0.1255527849137424 Sc
   0.6274461353127804    0.8769945940358310    0.8730061023405056 Sc
   0.8751217135312424    0.1264291411070745    0.3778711737254483 Sc
   0.8774152629817236    0.3807985106948066    0.1289896316051741 Sc
   0.6316445767287572    0.1230909544489299    0.1269579429723504 Sc
   0.6282159091866295    0.3762333458168907    0.3749540237760142 Sc
   0.8683131139823952    0.6228901726882077    0.8774954019694566 Sc
   0.8744172685732317    0.8717108387872994    0.6249597255334671 Sc
   0.6250080811852692    0.6250065664497687    0.6250006019960043 Sc
   0.3770772606520101    0.1169846894844654    0.1123935141598873 Se
   0.6159137015494477    0.3773790371397441    0.6123631457870817 Se
   0.6163471564344559    0.1153765174509785    0.8854425931849151 Se
   0.3759852713993287    0.3846910330539600    0.3850099864731768 Se
   0.3689623095170380    0.1399431485539528    0.6339366669160356 Se
   0.1326823311686775    0.8683127517652838    0.1394093203270619 Se
   0.1322212481762845    0.1332774707307511    0.8619844941994095 Se
   0.3643074139850447    0.8653133263188556    0.3651354111429705 Se
   0.3813218148887977    0.6159724230475434    0.6174991517059484 Se
   0.6169889739966287    0.8846186285570313    0.1204251290541978 Se
   0.6191259468971639    0.6206824744943248    0.3886435239651908 Se
   0.3809514946747913    0.8871984851856831    0.8881491415151915 Se
   0.3684032326193553    0.6353409266988522    0.1310030111042871 Se
   0.1322755657570606    0.3677188839803955    0.6329622718788812 Se
   0.1354125930531775    0.6314856291192955    0.3738871015700050 Se
   0.3663854009020824    0.3652420985948784    0.8684363302240267 Se
   0.8827504927719415    0.1165463750395896    0.6156170566225909 Se
   0.1196690740397436    0.3825330334796145    0.1220765414877171 Se
   0.1155385469580468    0.1162807854135757    0.3834507076475675 Se
   0.8816831795156049    0.3865825414009901    0.8783300981688916 Se
   0.8642016112476061    0.1388280838875604    0.1299646836153344 Se
   0.6336716916646088    0.8666379842748075    0.6328929996202035 Se
   0.6328654418199412    0.1324109318802041    0.3677800440471050 Se
   0.8697932095602467    0.8651129443146801    0.8712496770412147 Se
   0.8814699868556727    0.6176554953315536    0.1184638606820802 Se
   0.1178245093153630    0.8807188857680628    0.6101951010510742 Se
   0.1208589145628419    0.6200666297864648    0.8819566632399560 Se
   0.8825425438515031    0.8828185429059183    0.3821785489814504 Se
   0.8637900481429679    0.6353992144590733    0.6388025427865490 Se
   0.6389368976082885    0.3649863367050705    0.1364447761254310 Se
   0.6362537435635581    0.6265834348712981    0.8652323122561399 Se
   0.8679537934128314    0.3682246335199953    0.3658251349699528 Se
