Mg7 Sc16 Se32
1.0
  11.1003847944368736    0.0000000000000000    0.0000000000000000
   0.0000000000000000   11.1003847944368736    0.0000000000000000
  -0.0000000000000000   -0.0000000000000000   11.1003847944368736
Mg Sc Se
7 16 32
direct
   0.4928400691690927    0.0020236645193329    0.4917992103878930 Mg
   0.2459839718752144    0.7462926901458544    0.7556718039493361 Mg
   0.4957740934907069    0.5002413878136110    0.0042573873780645 Mg
   0.7581705462321766    0.2528515189747340    0.7497510113783229 Mg
   0.0035093481862624    0.0034680903673447    0.9882960543354767 Mg
   0.7483976157042100    0.7497028906348382    0.2634581936334969 Mg
   0.9899939577379036    0.5007755815847722    0.5094423698376316 Mg
   0.1328751148871012    0.8823061010065776    0.3771082187089059 Sc
   0.3669434946289336    0.1195107542234936    0.8650815380232582 Sc
   0.3749888890895370    0.3776474679886381    0.6244054614728278 Sc
   0.1308850396174812    0.1238071082657445    0.6246796241171571 Sc
   0.1267511139977660    0.3758722282926891    0.8806648811848541 Sc
   0.3741532942858819    0.6254941882061479    0.3752599179219659 Sc
   0.3749186160739868    0.8745868148013154    0.1231467566408278 Sc
   0.1196384771509059    0.6312002097743733    0.1186327393205310 Sc
   0.6256929632023964    0.8755279545483456    0.8741456426384865 Sc
   0.8673579665786064    0.1180802127392774    0.3718659492421326 Sc
   0.8637584064445187    0.3735026767480300    0.1278710715819210 Sc
   0.6186812713356786    0.1222361257186812    0.1258915528850177 Sc
   0.6290178987743520    0.3743722382978458    0.3751932569868973 Sc
   0.8705233558616877    0.6208437710574058    0.8732718250006910 Sc
   0.8695908847082801    0.8752909639813085    0.6207975546156296 Sc
   0.6324224303828536    0.6169302059271865    0.6318635718466432 Sc
   0.3813204627430514    0.1217926447839040    0.1058558431783954 Se
   0.6102577834160323    0.3839060495539826    0.6177212478101698 Se
   0.6262198859086137    0.1164948336539355    0.8743432323200782 Se
   0.3896714414956105    0.3725191891392085    0.3838225022332555 Se
   0.3747149065801396    0.1256748500805184    0.6420780784185366 Se
   0.1353420634162835    0.8764629041534517    0.1286873294823057 Se
   0.1276171399434093    0.1332525655500363    0.8772490132096260 Se
   0.3742831805358218    0.8624765752224069    0.3645191486197968 Se
   0.3812451831858775    0.6098482512239318    0.6142302329518173 Se
   0.6224243809094754    0.8790267055622293    0.1084534046537934 Se
   0.6082842168389758    0.6109021076885003    0.3811830560315552 Se
   0.3828592479431004    0.8870504160828672    0.8771052641037030 Se
   0.3698530091844183    0.6322776186895024    0.1313229971767986 Se
   0.1306255154996707    0.3672641546061929    0.6342567844193087 Se
   0.1287933805811771    0.6298088941616861    0.3662299381103617 Se
   0.3686526414957310    0.3628970762330871    0.8730459592217231 Se
   0.8824376514191525    0.1179465297210969    0.6200650187347841 Se
   0.1109721565027162    0.3730395716330879    0.1192676594501115 Se
   0.1180987383390046    0.1172320496794696    0.3830819711361588 Se
   0.8828236426301804    0.3830057912816838    0.8826973249368415 Se
   0.8690681098872469    0.1304576735436200    0.1345182648551735 Se
   0.6348450188334435    0.8739939104533598    0.6321329069928976 Se
   0.6329289630267060    0.1366604523086661    0.3729888067377674 Se
   0.8650259043984151    0.8648203249531593    0.8690716664719003 Se
   0.8801774447708334    0.6137967267634122    0.1178493668391536 Se
   0.1134488637342942    0.8794089904697314    0.6202132893813718 Se
   0.1254261796842501    0.6225157791819550    0.8787791403210968 Se
   0.8802651335689768    0.8836385296825074    0.3752900354838440 Se
   0.8681688687822330    0.6366858422069898    0.6418126129115785 Se
   0.6315297755757627    0.3683950478113013    0.1360112209679041 Se
   0.6313465273083195    0.6371668886300104    0.8541590512045519 Se
   0.8669422961082927    0.3656940591323259    0.3727503077803472 Se
