Mg7 Sc16 Se32
1.0
  11.1003847944368736    0.0000000000000000    0.0000000000000000
   0.0000000000000000   11.1003847944368736    0.0000000000000000
  -0.0000000000000000   -0.0000000000000000   11.1003847944368736
Mg Sc Se
7 16 32
direct
   0.5022877482908779    0.0032983238865745    0.4942021922561259 Mg
   0.2462877039382048    0.7559002439067766    0.7371895694941776 Mg
   0.1744975204178926    0.2771821005944152    0.1847184667084926 Mg
   0.7509392975121029    0.2517671731754015    0.7500362839839309 Mg
   0.9918491933433184    0.9962556608066356    0.9966891090158150 Mg
   0.7495360415373771    0.7618022508308498    0.2593771466228815 Mg
   0.0072445792499411    0.4949033658408835    0.5035314422759619 Mg
   0.1346603576909714    0.8824761858373198    0.3751600665541290 Sc
   0.3789508140934201    0.1267979261618133    0.8810963509926981 Sc
   0.3821170382040143    0.3665659320249398    0.6213477348255259 Sc
   0.1249774926735303    0.1267605178115079    0.6261150121383977 Sc
   0.1195082796464947    0.3736123627527521    0.8804084576362496 Sc
   0.3749522925416450    0.6249664140603721    0.3752266610587237 Sc
   0.3769303048737799    0.8698883073397725    0.1263187703051328 Sc
   0.1191443720913321    0.6224506425560300    0.1156983034568758 Sc
   0.6317196244495542    0.8814347613353725    0.8700659282004413 Sc
   0.8770369130047064    0.1141532519878001    0.3720209682724824 Sc
   0.8731689631201204    0.3596993710771113    0.1194986270035969 Sc
   0.6377666739989512    0.1248826478363684    0.1209470170384002 Sc
   0.6296429652093734    0.3812563964424971    0.3843912236888881 Sc
   0.8627568024542533    0.6338055401440426    0.8778961480724701 Sc
   0.8749843376575721    0.8769445446102974    0.6320646825663354 Sc
   0.6211639024633150    0.6248839170784835    0.6338175267395263 Sc
   0.3871293767497622    0.1038764265889367    0.1195819117945080 Se
   0.6308272256734845    0.3868400323424597    0.6112039859127626 Se
   0.6146877044796802    0.1133984628404690    0.8784572148303529 Se
   0.3779993715439641    0.3737613663146412    0.3857533736426038 Se
   0.3635828320643754    0.1335851803798136    0.6296245769179409 Se
   0.1470522892807206    0.8646538647167212    0.1363776042657599 Se
   0.1309778809073196    0.1337336230471474    0.8598854399494321 Se
   0.3670278272521550    0.8672464875661827    0.3673983057464340 Se
   0.3864642264065234    0.6097645741608406    0.6072107436907744 Se
   0.6105997712508837    0.8851823563502199    0.1160614148960024 Se
   0.6178959979307843    0.6167777442780432    0.3874584356784953 Se
   0.3887701696016087    0.8787772948006654    0.8863996638524506 Se
   0.3708740648447487    0.6348170848698884    0.1260668557561117 Se
   0.1369326746952325    0.3788116520868525    0.6363357743388197 Se
   0.1222033276262751    0.6306191397962432    0.3775468212000389 Se
   0.3743964644319044    0.3531524189079825    0.8649886402980603 Se
   0.8834466975692382    0.1228841866389026    0.6225372484107958 Se
   0.1032404560329189    0.3745173526862546    0.1125089877242057 Se
   0.1208884590527909    0.1137778053919016    0.3803909485314781 Se
   0.8823046892896084    0.3820966418536320    0.8846838748852847 Se
   0.8789027535918214    0.1354089317702812    0.1438845985509730 Se
   0.6211286710725675    0.8753526106664730    0.6298635472756193 Se
   0.6220301888551575    0.1392176526455917    0.3654697035589818 Se
   0.8690606846167536    0.8631706783182863    0.8731780933465551 Se
   0.8820649896337405    0.6169119660404219    0.1167373574617446 Se
   0.1188348545054349    0.8824535702898334    0.6151034075547865 Se
   0.1294227004108002    0.6071600044762089    0.8859714488756042 Se
   0.8873263916118771    0.8795831391106065    0.3799838385546043 Se
   0.8683111203258074    0.6328162229022898    0.6336361495247596 Se
   0.6323652377591040    0.3586700047291485    0.1393575473289919 Se
   0.6407769109878382    0.6239970108439199    0.8676009874874978 Se
   0.8760131334679084    0.3536171384747616    0.3642150321062412 Se
