Mg7 Sc16 Se32
1.0
  11.1003847944368736    0.0000000000000000    0.0000000000000000
   0.0000000000000000   11.1003847944368736    0.0000000000000000
  -0.0000000000000000   -0.0000000000000000   11.1003847944368736
Mg Sc Se
7 16 32
direct
   0.5009597634742189    0.0014647995878047    0.4976308728267202 Mg
   0.2101120421330917    0.5595657422040208    0.5268822121398254 Mg
   0.5018346711865552    0.4987562484698488    0.9979660850589036 Mg
   0.7506544832401634    0.2464781903459903    0.7562003260251252 Mg
   0.9881844315612451    0.9887750744410098    0.9980331726631160 Mg
   0.7571016108636476    0.7394804425727997    0.2303421369260996 Mg
   0.0132813709036296    0.5119019618566977    0.5080635081067639 Mg
   0.1263990504827461    0.8815554290784080    0.3664116421531117 Sc
   0.3734667911661713    0.1250318345130884    0.8747916777521639 Sc
   0.3912025700574294    0.3846354616771872    0.6432195809815524 Sc
   0.1258931738777401    0.1361859736094632    0.6316596436292926 Sc
   0.1271791527392920    0.3621516393640258    0.8523422468534638 Sc
   0.3757363002631963    0.6119545613265477    0.3690469091953696 Sc
   0.3806046523347422    0.8668378249536294    0.1298214211255377 Sc
   0.1199425363187488    0.6083892620747268    0.1285777757927815 Sc
   0.6266256586099713    0.8721925519791268    0.8715500747129068 Sc
   0.8653195383917519    0.1314900719973929    0.3869251787200877 Sc
   0.8681870096872502    0.3541498532979718    0.1157066237981572 Sc
   0.6292976801388254    0.1238264400232893    0.1205141308210356 Sc
   0.6172236225376500    0.3888344533917473    0.3860224800057417 Sc
   0.8712946978867162    0.6094206386547619    0.8537536729585902 Sc
   0.8765072648236087    0.8745108107180420    0.6259355210450733 Sc
   0.6181728322872299    0.6282835669015747    0.6331332402560150 Sc
   0.3874643193756451    0.0986312575620271    0.1206517063902629 Se
   0.6170951595981774    0.3829136157341298    0.6169714385947997 Se
   0.5995848859740845    0.1001115400324771    0.8788867195992944 Se
   0.3742226819721407    0.3691982810195519    0.3766372952711839 Se
   0.3697501456718940    0.1356458012185411    0.6282404108984446 Se
   0.1595742556228831    0.8704217557964334    0.1339572496765151 Se
   0.1331588843078437    0.1324795948130774    0.8676583404216239 Se
   0.3490821155242531    0.8753079688832532    0.3759118706121530 Se
   0.3900417682624776    0.6272207032583696    0.6037391673256792 Se
   0.6174178392215212    0.8573297876973774    0.1217076411600480 Se
   0.6194654220422504    0.6008802006871390    0.3851779748478644 Se
   0.3788347599486638    0.8763044593420992    0.8768330754430509 Se
   0.3606917479637227    0.6218339400524638    0.1448119135272422 Se
   0.1321360093559731    0.3694232138651333    0.6302389661838348 Se
   0.1398228844528923    0.6262909137264661    0.3586348956032124 Se
   0.3599465957763405    0.3861680352915957    0.8638206763202071 Se
   0.8819132844900534    0.1177161493464152    0.6180758244527864 Se
   0.1192474276273419    0.4075591114022906    0.1188132740119515 Se
   0.1156328473202958    0.1169742279853058    0.3830148775756663 Se
   0.8828694085007234    0.3822475059576962    0.8744273616766792 Se
   0.8581264605261836    0.1278036580643208    0.1428172529529811 Se
   0.6414774477626600    0.8746281167903629    0.6413225171340282 Se
   0.6437724607792260    0.1190490067623535    0.3603938383449814 Se
   0.8641997232866221    0.8649693780940050    0.8550606410220558 Se
   0.8934724709444627    0.6283326164019766    0.1392525270317199 Se
   0.0964511053894586    0.8770786754546566    0.6247504115334884 Se
   0.1151270320252020    0.6129636969156516    0.8838434031043945 Se
   0.8990454669329560    0.9003191410796504    0.3788107648835038 Se
   0.8648007510702461    0.6316347327600658    0.6456367591404529 Se
   0.6212923612761317    0.3782992728288618    0.1541485491178291 Se
   0.6260108927442731    0.6496568968037543    0.8489941582680404 Se
   0.8685615356859350    0.3662691340740211    0.3716546914899380 Se
