Mg7 Sc16 Se32
1.0
  11.1003847944368736    0.0000000000000000    0.0000000000000000
   0.0000000000000000   11.1003847944368736    0.0000000000000000
  -0.0000000000000000   -0.0000000000000000   11.1003847944368736
Mg Sc Se
7 16 32
direct
   0.5008207990213952    0.9895947751015007    0.4949934258868897 Mg
   0.1692809365610798    0.3159619032816839    0.2473706620320684 Mg
   0.4994451568562400    0.4913304620760002    0.9971568764182137 Mg
   0.7554828101116973    0.2407203884262265    0.7390986587944349 Mg
   0.9933523870084017    0.0109238675273113    0.9975887996969869 Mg
   0.7599069800247232    0.7470266786744402    0.2542084337516088 Mg
   0.9896758434322795    0.5127609814954811    0.5063335044994733 Mg
   0.1233763560391161    0.8589854829788662    0.3670719809071629 Sc
   0.3658836359272803    0.1171267847985562    0.8654825283863214 Sc
   0.3739626577043956    0.3882690648362798    0.6383761293310601 Sc
   0.1230761884523102    0.1255622454387390    0.6291071599507772 Sc
   0.1252537375766813    0.3731961203116761    0.8693811378091526 Sc
   0.3746089256625519    0.6241177904036223    0.3767683211686119 Sc
   0.3785336772489764    0.8738023929534903    0.1249676562356926 Sc
   0.1246464881754261    0.6252960318279328    0.1260999427747572 Sc
   0.6255457329485268    0.8782193850524833    0.8784987513566123 Sc
   0.8665434943680562    0.1300902747736442    0.3699860363768297 Sc
   0.8723335339386894    0.3771408355183989    0.1224274810537180 Sc
   0.6315198535171402    0.1273289334512566    0.1261414097546215 Sc
   0.6180721116597800    0.3706912303271865    0.3725577253407320 Sc
   0.8574450081878119    0.6312523647305655    0.8669236864452717 Sc
   0.8650747261952124    0.8907133697340273    0.6336245746298125 Sc
   0.6295057776705917    0.6350749042934619    0.6298016889817915 Sc
   0.3923899323897013    0.1252810529486046    0.1080246218943288 Se
   0.6222387397214861    0.3751108580437980    0.6230936093854752 Se
   0.6220208886374731    0.1209481434173027    0.8855005364026572 Se
   0.3825806208421926    0.3831903825013498    0.3829451157629359 Se
   0.3831783351531642    0.1274200734349678    0.6260118360807770 Se
   0.1304686525671299    0.8646748287287641    0.1368888675763484 Se
   0.1260415030461806    0.1388973495050368    0.8718825952548629 Se
   0.3762014037106975    0.8601323087871715    0.3706120331702460 Se
   0.3883389621081809    0.6094166529956596    0.6161961333012869 Se
   0.6176132704116469    0.8840372995225828    0.1172527175958136 Se
   0.6162132386733434    0.6136079923056792    0.3842727303959423 Se
   0.3629945429942504    0.8812871850918482    0.8877246271309027 Se
   0.3745759480042630    0.6311681772086031    0.1266587601225595 Se
   0.1429266417041513    0.3799359164607059    0.6253924490917715 Se
   0.1328154526507867    0.6346369755692953    0.3681897585699506 Se
   0.3823616420023169    0.3544601767983382    0.8647087448786770 Se
   0.8824715000166409    0.1145876212641784    0.6153971287727226 Se
   0.1113198632471399    0.3857634186889856    0.1155387564188982 Se
   0.1232754217409126    0.1117522036963782    0.3868505557611611 Se
   0.8883991122306353    0.3823356124570198    0.8697414118291299 Se
   0.8608607977440288    0.1402222476882724    0.1403620636889411 Se
   0.6442035354792583    0.8755609672225860    0.6278337070013910 Se
   0.6248021606523771    0.1469590269762521    0.3621379503219955 Se
   0.8669807731415682    0.8841345752696801    0.8628120917263288 Se
   0.8833287954251864    0.6186788861736024    0.1191026865206593 Se
   0.1171337816407292    0.8831984483538550    0.6170721417932182 Se
   0.1133626058197165    0.6197527905818058    0.8827179968267737 Se
   0.8928932653401639    0.8853260199604722    0.3695386930727978 Se
   0.8692247223171106    0.6285040792805875    0.6248312186292304 Se
   0.6429194425710514    0.3626243660937113    0.1486693008613567 Se
   0.6333354545292452    0.6169222501906027    0.8555698153193799 Se
   0.8637562817433317    0.3846006742016068    0.3750540563342373 Se
