Mg7 Sc16 Se32
1.0
  11.1003847944368736    0.0000000000000000    0.0000000000000000
   0.0000000000000000   11.1003847944368736    0.0000000000000000
  -0.0000000000000000   -0.0000000000000000   11.1003847944368736
Mg Sc Se
7 16 32
direct
   0.4998824508415566    0.0000132230651018    0.5000412022504371 Mg
   0.2473183495725561    0.7478987421295248    0.7490827271323310 Mg
   0.1828736239809801    0.2770800458048989    0.1829288792832331 Mg
   0.7504367567245008    0.2470229251549560    0.7532869024187350 Mg
   0.0015477722186471    0.9937076385237452    0.9942915594886818 Mg
   0.7511827875452001    0.7550658045507029    0.2523805651392991 Mg
   0.9976408332176734    0.4979405952610257    0.4980756355047435 Mg
   0.1230214359958642    0.8812347353884211    0.3811192682486448 Sc
   0.3763771240347247    0.1275250520216083    0.8760571148078489 Sc
   0.3699056738744056    0.3761393741148825    0.6293196034047219 Sc
   0.1233156385147416    0.1267348476937083    0.6214615157627549 Sc
   0.1245138464787056    0.3805343475316555    0.8698356366901963 Sc
   0.3807529858606342    0.6161072885912631    0.3777136596374286 Sc
   0.3760444913119473    0.8750774597535835    0.1356441172940958 Sc
   0.1284919345172548    0.6209894364437973    0.1290569521294759 Sc
   0.6212529955762289    0.8728068049857994    0.8749977051690200 Sc
   0.8703213743179746    0.1172775974837630    0.3734769181608473 Sc
   0.8758763995251642    0.3782082207880872    0.1239868337670046 Sc
   0.6265799214225944    0.1260700203104489    0.1244818255766667 Sc
   0.6277766265865399    0.3752269963554278    0.3798191750032612 Sc
   0.8761741374401788    0.6259109810354574    0.8712214731071040 Sc
   0.8664080646521336    0.8739478144442417    0.6197660832794532 Sc
   0.6268034398070067    0.6244768958232608    0.6206202040827771 Sc
   0.3866192223098436    0.1184149639211642    0.1170315288295461 Se
   0.6242365649306669    0.3854947761816659    0.6191581943845665 Se
   0.6117238017216831    0.1260342403224668    0.8816380254214216 Se
   0.3844385643335306    0.3844411023220592    0.3849310454998228 Se
   0.3605747695998150    0.1296428630052659    0.6319886185921554 Se
   0.1330767948118895    0.8634767934169149    0.1316902605089109 Se
   0.1377930330863129    0.1333964810252367    0.8665859156614807 Se
   0.3596710617150781    0.8697446010007874    0.3660239138705581 Se
   0.3825874054130075    0.6175662476958889    0.6165882762664826 Se
   0.6133865935602592    0.8793331743815027    0.1121269485912291 Se
   0.6209520719063617    0.6194528672440052    0.3878781805067587 Se
   0.3799057316900580    0.8810940399784114    0.8825730750338383 Se
   0.3629768336709261    0.6352504088527388    0.1313692398318613 Se
   0.1287714351984603    0.3640092191282009    0.6285227559836652 Se
   0.1308504362115515    0.6228610984610474    0.3690769826391065 Se
   0.3679004438687514    0.3716911098635609    0.8664976774052728 Se
   0.8857613497450769    0.1148706808087565    0.6180116765003875 Se
   0.1170653250220387    0.3833939215085949    0.1235404652705724 Se
   0.1166940826933181    0.1175418725262723    0.3827839476536049 Se
   0.8788118911720914    0.3812361681998057    0.8844220365420523 Se
   0.8627615773002582    0.1275223207071712    0.1324460130694620 Se
   0.6284763491227746    0.8753577434778382    0.6317823124753529 Se
   0.6324271774285930    0.1290222595528371    0.3586950459274502 Se
   0.8660390429060136    0.8664914385831627    0.8602830144683483 Se
   0.8828162976330463    0.6238435155295137    0.1242753367150177 Se
   0.1221852682688491    0.8853011602321734    0.6169949886093776 Se
   0.1172649579796297    0.6166568094205526    0.8831767136618988 Se
   0.8826194496281696    0.8837791111447993    0.3834713460384793 Se
   0.8681692736686294    0.6328021063890064    0.6331429425715320 Se
   0.6332011665017236    0.3674889575046428    0.1324707961226580 Se
   0.6342689376971231    0.6398425920789143    0.8714449162466966 Se
   0.8669213931191950    0.3668486802920927    0.3681101719278749 Se
