Mg7 Sc16 Se32
1.0
  11.1003847944368736    0.0000000000000000    0.0000000000000000
   0.0000000000000000   11.1003847944368736    0.0000000000000000
  -0.0000000000000000   -0.0000000000000000   11.1003847944368736
Mg Sc Se
7 16 32
direct
   0.3216320662382169    0.1857384651741493    0.3296520537808726 Mg
   0.2454958839021465    0.7430266481799499    0.7561321433794628 Mg
   0.4950851340719681    0.4903639898240174    0.0075378314138354 Mg
   0.7490839195698938    0.2482300006592478    0.7481290308646138 Mg
   0.9989893322249406    0.0093778640731371    0.9951652364014250 Mg
   0.7509914640404747    0.7511916579103570    0.2501403659531520 Mg
   0.0014552871910905    0.5003173308250841    0.5030465880401342 Mg
   0.1115171267231546    0.8753066631720881    0.3784728661611752 Sc
   0.3648829552876672    0.1236517726007502    0.8685126333824140 Sc
   0.3715600823647148    0.3761370559742295    0.6248881373375810 Sc
   0.1253995343095064    0.1234249463291315    0.6233092190108211 Sc
   0.1168093489200356    0.3735704673177137    0.8800054569590166 Sc
   0.3775463422508842    0.6259255304650017    0.3726485243306296 Sc
   0.3752802665077321    0.8757015841826848    0.1254123386771081 Sc
   0.1274731482594103    0.6284000987296549    0.1264298730251569 Sc
   0.6238532378508660    0.8744459387058460    0.8768694056672141 Sc
   0.8689542380971518    0.1161475982320752    0.3770975842831947 Sc
   0.8803025249391493    0.3688311082636843    0.1339716723333579 Sc
   0.6251785577885193    0.1362142012185533    0.1189480457188073 Sc
   0.6261894090523645    0.3748073587058238    0.3743029607226202 Sc
   0.8786259252304250    0.6242629180124537    0.8640231674326889 Sc
   0.8808232250168989    0.8753169222483810    0.6214445666150643 Sc
   0.6293094204315732    0.6263674499711913    0.6249170089145464 Sc
   0.3723801271666270    0.1168900581951713    0.1123318941047241 Se
   0.6119026520024992    0.3799357516926901    0.6215193824337496 Se
   0.6151137687606040    0.1257428398591092    0.8795920527053340 Se
   0.3939571599040126    0.3786714525374589    0.3840417185721902 Se
   0.3685812819524552    0.1370344567209620    0.6288987602440324 Se
   0.1334367011704395    0.8665988564265793    0.1325722753117896 Se
   0.1282527247738292    0.1374136698540355    0.8695462693945565 Se
   0.3672844301511145    0.8672677975374380    0.3668539046042975 Se
   0.3861385233972306    0.6272805851052560    0.6185371000266994 Se
   0.6289495932585457    0.8855206266382052    0.1119941502812288 Se
   0.6166776577914509    0.6062594092111345    0.3871331922619055 Se
   0.3799908437082956    0.8800528241565355    0.8888504114466519 Se
   0.3684394142288295    0.6274789475656429    0.1308172789002783 Se
   0.1389788903000555    0.3612377281241848    0.6427511068411786 Se
   0.1320386332845985    0.6336701240799293    0.3678017925584244 Se
   0.3635732025500933    0.3620694230437292    0.8680133947546592 Se
   0.8794606811158482    0.1189846016367253    0.6271492476515300 Se
   0.1156865765095106    0.3730909474264407    0.1137945501790699 Se
   0.1160437245195826    0.1172748444570656    0.3826618888190088 Se
   0.8901233055776387    0.3883122382690445    0.8843706601270641 Se
   0.8700521944951097    0.1325744057066263    0.1310967943337296 Se
   0.6243181303046565    0.8631406154919748    0.6260858796093074 Se
   0.6365550535455922    0.1401576443433487    0.3622695459976192 Se
   0.8678237749805169    0.8690099457801858    0.8595587215025040 Se
   0.8895137632242616    0.6152272319697132    0.1156461950858202 Se
   0.1215962158868029    0.8929756513846286    0.6153725895410410 Se
   0.1150648611381186    0.6192781348149634    0.8849605507351098 Se
   0.8882778563497273    0.8843354787946203    0.3828600262953497 Se
   0.8737361862022157    0.6347067354885716    0.6409604181706930 Se
   0.6314166860129568    0.3662882614366113    0.1335757390419689 Se
   0.6395513734695778    0.6304657521040101    0.8638306114502421 Se
   0.8678797358222317    0.3786732235703068    0.3645406859687192 Se
