Mg7 Sc16 Se32
1.0
  11.1003847944368736    0.0000000000000000    0.0000000000000000
   0.0000000000000000   11.1003847944368736    0.0000000000000000
  -0.0000000000000000   -0.0000000000000000   11.1003847944368736
Mg Sc Se
7 16 32
direct
   0.5043196352808748    0.9967745538167808    0.5021785866294550 Mg
   0.2466979864992117    0.7426228827067118    0.7491388210497665 Mg
   0.5000162026333395    0.5000550093985578    0.9972283417513536 Mg
   0.7489004987894659    0.2522656919499965    0.7515734768294987 Mg
   0.9991618107320414    0.9927046842103199    0.0069574514928764 Mg
   0.7497914845282686    0.7516643163164306    0.2540242919687780 Mg
   0.0061677969502362    0.4985612584966098    0.5026778998002972 Mg
   0.1259503249334462    0.8729043306915290    0.3751982070934244 Sc
   0.3754884858003809    0.1224647915705501    0.8714655004057457 Sc
   0.3731174518055468    0.3763805076033264    0.6293419469931736 Sc
   0.1238105723440907    0.1257463720330780    0.6260077887742722 Sc
   0.1251367404902603    0.3745334873300283    0.8753208546860990 Sc
   0.3725219398187282    0.6304074779962199    0.3736937588325241 Sc
   0.3745200225094008    0.8778205164668464    0.1239938658255319 Sc
   0.1235339688757804    0.6244451043242921    0.1262922617957369 Sc
   0.6253515718172301    0.8761147473382964    0.8670539436453834 Sc
   0.8747583825724647    0.1240752837263339    0.3757345605913925 Sc
   0.8718140624037137    0.3772561543848089    0.1232349419121726 Sc
   0.6274416816936743    0.1276033608707580    0.1152242759537140 Sc
   0.6316957561264165    0.3824222742713960    0.3784200231512560 Sc
   0.8788797826113599    0.6177648661287380    0.8789254893357319 Sc
   0.8727823485412776    0.8776928336104211    0.6266170123495889 Sc
   0.6244727675883298    0.6286456905874446    0.6234044846408606 Sc
   0.3915135056748496    0.1217042940476283    0.1190051683842438 Se
   0.6200204764840139    0.3880078779130826    0.6169148748350921 Se
   0.6200500573872145    0.1205995813629859    0.8806964430551349 Se
   0.3808313472644926    0.3864895295132577    0.3851577260468056 Se
   0.3667867616949247    0.1318074850233166    0.6335197072291570 Se
   0.1311511381835063    0.8695466469327291    0.1320355396971554 Se
   0.1359759876077703    0.1387185167221092    0.8690216441026480 Se
   0.3709032767321074    0.8671610791260097    0.3649828746798151 Se
   0.3864815693766173    0.6195733584889086    0.6164199186040620 Se
   0.6150139583878251    0.8834016327351071    0.1126513721029226 Se
   0.6145548408000119    0.6098617572646554    0.3822366788665058 Se
   0.3828445682082373    0.8845056763020590    0.8845399357222209 Se
   0.3604126738247918    0.6381986449897037    0.1307103184705073 Se
   0.1297647719788163    0.3718103125987874    0.6331466019857385 Se
   0.1323872584661965    0.6348847989495265    0.3679419241331384 Se
   0.3757878775407060    0.3734317526800620    0.8673908769950540 Se
   0.8874904579515144    0.1146071877709809    0.6204165688032288 Se
   0.1190439535560340    0.3835728159657191    0.1168780164394915 Se
   0.1189880602958382    0.1120954442541680    0.3847827336798440 Se
   0.8830665700405785    0.3829602466989454    0.8828447721985655 Se
   0.8672689001505942    0.1356607222210364    0.1296401868141206 Se
   0.6370747472073084    0.8625520335004726    0.6269385345212516 Se
   0.6300664349884643    0.1269001179528874    0.3684533610715578 Se
   0.8683368851791432    0.8690959275728923    0.8679375155696663 Se
   0.8900990110687133    0.6147619933232279    0.1165642181817551 Se
   0.1150363548587537    0.8810099307978150    0.6086893313645024 Se
   0.1207628483431361    0.6136076036655637    0.8783475333336145 Se
   0.8891259357286727    0.8839319877416830    0.3787088225117126 Se
   0.8622221877961525    0.6381327976311839    0.6375424337124234 Se
   0.6357053667043060    0.3702819111268840    0.1278220070806291 Se
   0.6310298631438755    0.6316961425153795    0.8683553662863081 Se
   0.8700918759414371    0.3721876452139484    0.3696213179373241 Se
