Mg7 Sc16 Se32
1.0
  11.1003847944368736    0.0000000000000000    0.0000000000000000
   0.0000000000000000   11.1003847944368736    0.0000000000000000
  -0.0000000000000000   -0.0000000000000000   11.1003847944368736
Mg Sc Se
7 16 32
direct
   0.1971889624669192    0.2521214612073986    0.2475853156514632 Mg
   0.2427948019998813    0.7376322847017532    0.7517850399312924 Mg
   0.5036851304887280    0.5025627053484804    0.9965521277855222 Mg
   0.7508462082866003    0.2466923120789836    0.7502268449751759 Mg
   0.9822600671674084    0.9929311207881936    0.0051606144158343 Mg
   0.7574892325818908    0.7496459500292219    0.2506684113646411 Mg
   0.9836094629455971    0.5096350939219546    0.4939328851347320 Mg
   0.1152943446046366    0.8653610867250792    0.3786504882870915 Sc
   0.3744768398553900    0.1143192154708138    0.8780817184342319 Sc
   0.3764984152687216    0.3736879956693583    0.6248087223488359 Sc
   0.1391375356409729    0.1149003752631805    0.6196605217082005 Sc
   0.1314692247107359    0.3708032228509358    0.8800312066621748 Sc
   0.3818764116402693    0.6254030510398539    0.3802783138645704 Sc
   0.3865239312830335    0.8642423858108711    0.1356815537445760 Sc
   0.1214166159290637    0.6215879880592634    0.1250121331334802 Sc
   0.6208552685563109    0.8877174107533701    0.8778956485276832 Sc
   0.8801365488864957    0.1264053146764307    0.3631332638975340 Sc
   0.8847568285660150    0.3701280504117510    0.1249937785538350 Sc
   0.6225105839154227    0.1272736879929506    0.1227592913995489 Sc
   0.6261256186851514    0.3707713963972624    0.3737220330952443 Sc
   0.8695675309785609    0.6327311185268575    0.8929722156535300 Sc
   0.8834040900253944    0.8737134431156922    0.6347295818050109 Sc
   0.6309502382226285    0.6383180574209848    0.6329088664830427 Sc
   0.3861753721832866    0.1142111325982019    0.1181639111680249 Se
   0.6177407996985421    0.3845521213579475    0.6226096210218676 Se
   0.6237407771268475    0.1237578160452752    0.8948117444086053 Se
   0.3637095718915859    0.3822039215629899    0.3873342403015990 Se
   0.3685208210672113    0.1298116112130264    0.6428845700343699 Se
   0.1371922885977143    0.8678391433735910    0.1401957765990099 Se
   0.1407612820673880    0.1509443295074205    0.8662251340195637 Se
   0.3608678606983149    0.8605245523674259    0.3554814682969882 Se
   0.3918629323459029    0.6133072419559545    0.6147861057708485 Se
   0.6252588916866026    0.8918463556782043    0.1140544026677977 Se
   0.6196631147272704    0.6133333436571393    0.3831907734405781 Se
   0.3799323602719230    0.8843437451494811    0.8788892353698846 Se
   0.3662814629591040    0.6387909951334442    0.1465949046199958 Se
   0.1329063127915920    0.3668544566576539    0.6328504208069047 Se
   0.1327838358365507    0.6270361797868793    0.3697222249089572 Se
   0.3660986722603027    0.3678782471145523    0.8675705168963976 Se
   0.8758053885751694    0.1185086999711435    0.6189982976694937 Se
   0.1088276198713388    0.3950462874262017    0.1262141626251096 Se
   0.1171090967400285    0.1171098628620821    0.3829246976228967 Se
   0.8838520023898215    0.3944492975447195    0.8851307980617872 Se
   0.8648310126792241    0.1332152732529380    0.1215013800333825 Se
   0.6341087017794111    0.8796654931530236    0.6307444509164267 Se
   0.6296895182434747    0.1345403060854046    0.3701931231796071 Se
   0.8776341640453551    0.8499938619329811    0.8649471716750586 Se
   0.8808973727446845    0.6223525801721121    0.1250584433006204 Se
   0.1068360750723704    0.8854442451077561    0.6198819924381602 Se
   0.1089202752804482    0.6184600885997249    0.8879439497127269 Se
   0.8791864344276809    0.8741997916107450    0.3952867100211296 Se
   0.8684303810118218    0.6337351711735596    0.6266023678405223 Se
   0.6348426874284909    0.3697228303134384    0.1272255467297510 Se
   0.6338145861136532    0.6302168463327815    0.8635175228007493 Se
   0.8875634782120297    0.3665893300704098    0.3649182938618014 Se
