Mg7 Sc16 Se32
1.0
  11.1003847944368736    0.0000000000000000    0.0000000000000000
   0.0000000000000000   11.1003847944368736    0.0000000000000000
  -0.0000000000000000   -0.0000000000000000   11.1003847944368736
Mg Sc Se
7 16 32
direct
   0.4991659605218221    0.0036183270879987    0.4975334851326926 Mg
   0.2504780858197939    0.7496214199120478    0.7501239956497618 Mg
   0.5003413106318431    0.5013123690932892    0.9988106580786876 Mg
   0.7508326082136515    0.2479910241664298    0.7484516979456747 Mg
   0.1387547156343293    0.1343642021641286    0.1542251603491418 Mg
   0.7511282906032982    0.7536278392670629    0.2497038519393986 Mg
   0.9974500135828207    0.5009861074999113    0.4982441280089513 Mg
   0.1270327509512317    0.8737879545854332    0.3757471049342593 Sc
   0.3747562437352103    0.1274724677372983    0.8725888244369048 Sc
   0.3764570954148198    0.3712253995530447    0.6260754070611902 Sc
   0.1260331256032759    0.1242942054784002    0.6254557273364897 Sc
   0.1240841143608560    0.3784647317144786    0.8731927207202212 Sc
   0.3743595427483208    0.6223224147220958    0.3715250109020431 Sc
   0.3731039046408477    0.8735511630458334    0.1251866690860916 Sc
   0.1254942227807010    0.6252499965657006    0.1242513806759167 Sc
   0.6267399245179123    0.8758920500716031    0.8755507622221367 Sc
   0.8748143073049846    0.1228330787321257    0.3739276062939438 Sc
   0.8750589088019739    0.3748803991798026    0.1247578679098413 Sc
   0.6252143997706305    0.1275599481311024    0.1279441455126369 Sc
   0.6247597876150502    0.3724550260504371    0.3755134237503630 Sc
   0.8753564706135658    0.6256727722661432    0.8740427623416585 Sc
   0.8751681056764182    0.8756669162172909    0.6272278761458633 Sc
   0.6264077553094862    0.6257014864987572    0.6277182459651921 Sc
   0.3829213583601750    0.1171039818756060    0.1171232665890834 Se
   0.6187030566748161    0.3793277605319791    0.6175008084542863 Se
   0.6169471523580755    0.1172805417855865    0.8825441832490190 Se
   0.3854967899561021    0.3835106691743917    0.3804826706379548 Se
   0.3658552263072907    0.1331521144330263    0.6314230552223933 Se
   0.1332315277610906    0.8678283176124456    0.1328094361732485 Se
   0.1313200785816423    0.1327089369466433    0.8671666515849155 Se
   0.3679899681536383    0.8644222091193590    0.3698760824808215 Se
   0.3814976779390961    0.6160293579341126    0.6193372297899555 Se
   0.6150967372667084    0.8817613693012187    0.1171340015619555 Se
   0.6167107495062569    0.6149186753104424    0.3841126701121546 Se
   0.3833021864694289    0.8834639717846720    0.8843545980565022 Se
   0.3658961261914724    0.6298188350688382    0.1298607704860001 Se
   0.1336400666864166    0.3661369000110313    0.6300038492131546 Se
   0.1344626653167955    0.6314144916987625    0.3667628464185054 Se
   0.3687986889088877    0.3648140042952190    0.8653727976689009 Se
   0.8828044679454755    0.1169984258971802    0.6185239148947737 Se
   0.1154849473241363    0.3827514933346950    0.1184443356776026 Se
   0.1159318702716096    0.1176744787031854    0.3820829395759386 Se
   0.8819631078460383    0.3848689953300000    0.8824435267528816 Se
   0.8657297896346371    0.1349945102554796    0.1345665815594059 Se
   0.6327903917220781    0.8635641177638225    0.6344492307955004 Se
   0.6307001934785855    0.1315105268951771    0.3644614240684062 Se
   0.8660028040348637    0.8700501472196952    0.8680674862510398 Se
   0.8831219149078855    0.6172321877061800    0.1175583287640121 Se
   0.1156552546535628    0.8835328212978008    0.6161143694209854 Se
   0.1175979675992477    0.6158295088221392    0.8845127332974133 Se
   0.8822429683939788    0.8823322875502337    0.3837147637915102 Se
   0.8686884615212979    0.6324773216018031    0.6324256151386850 Se
   0.6314089699997564    0.3665545189865350    0.1324115999628774 Se
   0.6347898256474568    0.6339037708728049    0.8667403187507202 Se
   0.8669531604910121    0.3668302796929179    0.3668695037777596 Se
