Mg7 Sc16 Se32
1.0
  11.1003847944368736    0.0000000000000000    0.0000000000000000
   0.0000000000000000   11.1003847944368736    0.0000000000000000
  -0.0000000000000000   -0.0000000000000000   11.1003847944368736
Mg Sc Se
7 16 32
direct
   0.5027806713215507    0.9994307150292098    0.4979668680745471 Mg
   0.2511743337119161    0.7509861418025179    0.7503749926425737 Mg
   0.2476851842268878    0.2524180343484842    0.2481072847073112 Mg
   0.7481163751751402    0.2502785431725453    0.7490141627336818 Mg
   0.9998887348525246    0.0010080972369473    0.0012386387167381 Mg
   0.7499594205207489    0.7500572103372939    0.2500008288648568 Mg
   0.9992423821418999    0.4991623388252905    0.4993419228217712 Mg
   0.1244376388001809    0.8743577557162497    0.3751813077345403 Sc
   0.3780609098068938    0.1237980002818669    0.8720925464772157 Sc
   0.3748421218189389    0.3749619718425874    0.6277861038857993 Sc
   0.1238091269856749    0.1243428838902293    0.6220328969409553 Sc
   0.1242141195663278    0.3741880643971800    0.8762033761551277 Sc
   0.3739741854368385    0.6284680296447120    0.3729752652301833 Sc
   0.3751899989016704    0.8758511697267407    0.1242426609431510 Sc
   0.1247723582830246    0.6249198111513090    0.1249815920323375 Sc
   0.6247855158424591    0.8748985070516404    0.8743397806002315 Sc
   0.8753195337515525    0.1245665773284214    0.3752777041635826 Sc
   0.8729536902412595    0.3747286855856213    0.1250422951535118 Sc
   0.6268536136281880    0.1236720127342743    0.1248613086659887 Sc
   0.6242371672156951    0.3783765574279626    0.3773662803773227 Sc
   0.8772530311589396    0.6222292027924585    0.8759932544218545 Sc
   0.8758383629413303    0.8733917609386642    0.6237212384542350 Sc
   0.6225171121035598    0.6261180785778729    0.6216450340418082 Sc
   0.3798960701041939    0.1169132167151734    0.1159491972853614 Se
   0.6156059146173782    0.3831272415567348    0.6172912125240912 Se
   0.6178656797994277    0.1181651596151105    0.8831774126687797 Se
   0.3830939745498382    0.3827440503807868    0.3830717800129497 Se
   0.3678907281372425    0.1364713499513999    0.6316884786402317 Se
   0.1336060446335421    0.8666186374357553    0.1353046973382524 Se
   0.1332413590591033    0.1328892020759332    0.8646905804404875 Se
   0.3685831481967642    0.8686433775722872    0.3676717776452396 Se
   0.3842828315504355    0.6175004276164141    0.6177389543769939 Se
   0.6187451325229592    0.8792633611374971    0.1158765055334731 Se
   0.6163476342802187    0.6166938075003989    0.3827079681810820 Se
   0.3816030406979177    0.8835820369275130    0.8849028034993972 Se
   0.3669392493400011    0.6324060576225438    0.1323057900515906 Se
   0.1340947880786597    0.3675235967025586    0.6288845679902322 Se
   0.1318801286317082    0.6350152004688547    0.3687018871914299 Se
   0.3660474851552737    0.3694276852504399    0.8659544800398939 Se
   0.8831004489421119    0.1181848793355309    0.6165201407077507 Se
   0.1168388519958576    0.3826096918969573    0.1169560590749737 Se
   0.1129441587748362    0.1170421149918966    0.3827699031382259 Se
   0.8833977829500888    0.3803298188314955    0.8847010957448822 Se
   0.8670996912796411    0.1333194829146310    0.1325123755146183 Se
   0.6326128596532613    0.8669579392738144    0.6333488756466853 Se
   0.6337652942302625    0.1326447254077595    0.3648355668922407 Se
   0.8683894812102892    0.8645433381984672    0.8639994375341395 Se
   0.8825181098072459    0.6174166030473680    0.1170217473935897 Se
   0.1150775879232436    0.8821302535862117    0.6197353640877237 Se
   0.1155570163127504    0.6155390490404118    0.8836767896909773 Se
   0.8821147231223737    0.8816205907428849    0.3868379633765923 Se
   0.8676264878112927    0.6332632088294661    0.6332280987880404 Se
   0.6340242090090602    0.3670190770177324    0.1333315267942697 Se
   0.6330082115088587    0.6313055713777587    0.8687629954514089 Se
   0.8667583296581872    0.3677345762062169    0.3677001979969278 Se
