Mg7 Sc16 Se32
1.0
  11.1003847944368736    0.0000000000000000    0.0000000000000000
   0.0000000000000000   11.1003847944368736    0.0000000000000000
  -0.0000000000000000   -0.0000000000000000   11.1003847944368736
Mg Sc Se
7 16 32
direct
   0.5081571224094420    0.9966717890053371    0.5035606488454550 Mg
   0.2501831158590077    0.7503683949166016    0.7507381697701846 Mg
   0.4949010517645723    0.4912084729063623    0.9983949389083541 Mg
   0.7484577252800567    0.2498081678994706    0.7519957171587635 Mg
   0.0015925707132366    0.9993385517516553    0.9961327084399071 Mg
   0.7505831113831294    0.7487740528181162    0.2485083837900889 Mg
   0.9937436509837161    0.4957091453112013    0.5048595061611026 Mg
   0.1243907531222918    0.8753640786727919    0.3751718879210181 Sc
   0.3727059670604359    0.1238940668061563    0.8803603638874468 Sc
   0.3688178365502890    0.3759371423766613    0.6251518109607146 Sc
   0.1222677326769311    0.1264810374319597    0.6266964211159815 Sc
   0.1258107073143961    0.3706719934401830    0.8790226454478548 Sc
   0.3748138173031057    0.6201209512830205    0.3751764936136616 Sc
   0.3743451502225564    0.8736928341734547    0.1268784338180414 Sc
   0.1273719087145673    0.6260797607301054    0.1253656024367593 Sc
   0.6170693934104211    0.8696705110963979    0.8779694293371951 Sc
   0.8707148256765551    0.1235924473026435    0.3764961645977355 Sc
   0.8737817589806572    0.3759492846393920    0.1238939753378849 Sc
   0.6210401227990640    0.1263551285551871    0.1269172503675705 Sc
   0.6245958628730811    0.3776825681036126    0.3835407299254731 Sc
   0.8750901071107933    0.6249963316278665    0.8750845797801484 Sc
   0.8749159901477963    0.8749344105400103    0.6251196917945457 Sc
   0.6308066063246935    0.6222369237599547    0.6285565489965970 Sc
   0.3878512176352304    0.1169446544885980    0.1146688090239334 Se
   0.6193823180825980    0.3823969563787818    0.6211398586957844 Se
   0.6103856270049257    0.1168414543607479    0.8813171279907454 Se
   0.3746499892810087    0.3821525678331778    0.3822888953583980 Se
   0.3672583497360268    0.1330681366612841    0.6330747523503326 Se
   0.1293484708518481    0.8720336377609058    0.1355459036922954 Se
   0.1287855132472961    0.1366033943286238    0.8646063448857892 Se
   0.3720651050223527    0.8695290417081079    0.3626004299940888 Se
   0.3818457875569059    0.6217854386771283    0.6202956944234472 Se
   0.6247797304259914    0.8808210116351315    0.1233970122419703 Se
   0.6171228776784183    0.6171227370669933    0.3828780814399362 Se
   0.3817307739044468    0.8856815831562125    0.8807559771280956 Se
   0.3703965825174476    0.6377862323139144    0.1240348783916963 Se
   0.1369362238574701    0.3658962549601784    0.6339891031270125 Se
   0.1267817424604349    0.6272310151530576    0.3725978098793296 Se
   0.3640271679697141    0.3705233780124908    0.8689636261513586 Se
   0.8809576597123248    0.1172099826122340    0.6228556720514836 Se
   0.1169661815792981    0.3833990163110720    0.1134985259811321 Se
   0.1189218302005923    0.1152713927999309    0.3835731964979838 Se
   0.8799855651375763    0.3882085969066393    0.8766037026104270 Se
   0.8663430417719078    0.1328539284527203    0.1306411510123799 Se
   0.6328007485725490    0.8670041800116897    0.6329333619540528 Se
   0.6325990006312865    0.1265185589791688    0.3657916834652672 Se
   0.8610522586239213    0.8682154418772593    0.8666764497355584 Se
   0.8797762324074421    0.6169357388352305    0.1134964690795832 Se
   0.1173996841297757    0.8834871451792431    0.6180477851612013 Se
   0.1251097533905065    0.6232316561392309    0.8861802780488601 Se
   0.8827335133095011    0.8815744571228931    0.3800118256609771 Se
   0.8655092328789007    0.6287929688307550    0.6241421655652017 Se
   0.6400703704752517    0.3746021091428513    0.1336011638527105 Se
   0.6334346587518302    0.6288235483115985    0.8731951620045583 Se
   0.8736113336558605    0.3757134310386860    0.3677616446898360 Se
