Mg7 Sc16 Se32
1.0
  11.1003847944368736    0.0000000000000000    0.0000000000000000
   0.0000000000000000   11.1003847944368736    0.0000000000000000
  -0.0000000000000000   -0.0000000000000000   11.1003847944368736
Mg Sc Se
7 16 32
direct
   0.4999385128332522    0.0003539708138668    0.5004715478494282 Mg
   0.2502393208242932    0.7521347997315796    0.7460941122717696 Mg
   0.5002736117622570    0.5012200274841261    0.0007549887417389 Mg
   0.7499652815680217    0.2499166549642329    0.7495563455393127 Mg
   0.0646418970551442    0.0994673926489456    0.0910525750565094 Mg
   0.7492015341563187    0.7518914901054869    0.2496581656865468 Mg
   0.9998466503511417    0.4975258709280665    0.4966253673622799 Mg
   0.1272119073808371    0.8733787367272986    0.3772888220972325 Sc
   0.3749613605026223    0.1251334013153241    0.8749664688533364 Sc
   0.3749704831178129    0.3718626951216920    0.6249084546477232 Sc
   0.1270830303277438    0.1246508646172935    0.6270109350198900 Sc
   0.1258713427557646    0.3749467158029813    0.8737983281977911 Sc
   0.3769463667771120    0.6275496406178641    0.3742432525305822 Sc
   0.3769961762655848    0.8732758273435863    0.1260717882572384 Sc
   0.1242747826931523    0.6225547383478524    0.1254151580823715 Sc
   0.6249137931166150    0.8743415797942790    0.8745813522011339 Sc
   0.8745698215518131    0.1251586434620653    0.3754821492696518 Sc
   0.8760471156205306    0.3744804303760154    0.1281927079558302 Sc
   0.6259955315864038    0.1212507577636629    0.1227169851231060 Sc
   0.6231932073501671    0.3748067767604734    0.3751831906690571 Sc
   0.8789144711035645    0.6253580407779080    0.8739857436600876 Sc
   0.8755621595281114    0.8748470854358514    0.6245872130722697 Sc
   0.6249989804836791    0.6249572642367217    0.6249785589642565 Sc
   0.3851917078592104    0.1150625292223829    0.1179828117835694 Se
   0.6145924595209019    0.3833623459571885    0.6167902163133222 Se
   0.6178866929399905    0.1135283929363236    0.8814433469515339 Se
   0.3831844060344285    0.3831589081593592    0.3824267674995045 Se
   0.3673974822703203    0.1348404019415665    0.6330506590579812 Se
   0.1329906650342555    0.8672530020055573    0.1328432101861682 Se
   0.1332329002633708    0.1326179384113721    0.8680972282029573 Se
   0.3667931006885055    0.8670948639317058    0.3662456425023463 Se
   0.3830038164976627    0.6172184974991306    0.6171192443107750 Se
   0.6174988243385146    0.8788638724404778    0.1187450424508425 Se
   0.6178962323073581    0.6142857049213610    0.3830854773920386 Se
   0.3823812405069535    0.8804941141292082    0.8826010768602705 Se
   0.3666559229095416    0.6326976047155503    0.1327737839387038 Se
   0.1329139887088247    0.3664513406101368    0.6332094843932961 Se
   0.1345863504217424    0.6316625067374327    0.3684831058102571 Se
   0.3673835528230715    0.3658222391574568    0.8676873028930122 Se
   0.8828660150299427    0.1186464339665425    0.6171614417987119 Se
   0.1152652142608063    0.3800858901523571    0.1165708277707674 Se
   0.1153384929835364    0.1185489457758361    0.3830921704025964 Se
   0.8834381463173181    0.3821065429040522    0.8828906384928477 Se
   0.8664034457197869    0.1326871617687151    0.1335885494521440 Se
   0.6328897019951290    0.8680986226888124    0.6342635254316918 Se
   0.6331242855250709    0.1329515754852443    0.3671893309126834 Se
   0.8667324166125865    0.8688042575497462    0.8669813385263440 Se
   0.8829120613398062    0.6164170668883098    0.1163084799292632 Se
   0.1175027440585138    0.8845054664851291    0.6151728922564377 Se
   0.1165364061593164    0.6175845657970144    0.8850671132935610 Se
   0.8827310312778284    0.8836331938409763    0.3804716658901309 Se
   0.8694916689279025    0.6320952712392661    0.6297843904481804 Se
   0.6341247764683935    0.3676921651227125    0.1354127624123111 Se
   0.6340679856953506    0.6319207591634225    0.8686448857838138 Se
   0.8665947843077397    0.3638780668537688    0.3667641830521794 Se
