Mg7 Sc16 Se32
1.0
  11.1003847944368736    0.0000000000000000    0.0000000000000000
   0.0000000000000000   11.1003847944368736    0.0000000000000000
  -0.0000000000000000   -0.0000000000000000   11.1003847944368736
Mg Sc Se
7 16 32
direct
   0.5005414116543339    0.0006664579604095    0.5032399291948374 Mg
   0.2213876611691086    0.5661891603918546    0.5353511566756748 Mg
   0.5018155448788074    0.5023738297562043    0.0006017286344248 Mg
   0.7501476939603886    0.2519847454693965    0.7514286610862523 Mg
   0.0002934540296955    0.0057047994782697    0.9999527738538838 Mg
   0.7455891516217382    0.7463423779165145    0.2485992784324100 Mg
   0.9976467391942837    0.4936682881595759    0.4972371614181041 Mg
   0.1276048269742194    0.8763037529529857    0.3750866863218991 Sc
   0.3727320365697864    0.1244724020299049    0.8804650547544827 Sc
   0.3754912854626141    0.3690201528172499    0.6239828395893690 Sc
   0.1234642156380309    0.1271726507873921    0.6247933081928686 Sc
   0.1304119308923425    0.3727405535507161    0.8750452839616061 Sc
   0.3736024528662029    0.6274591862570091    0.3753211003151628 Sc
   0.3750768936692580    0.8761978391338181    0.1252862018288946 Sc
   0.1240459410660407    0.6272825783416315    0.1277215580664518 Sc
   0.6290743055441128    0.8790271184719556    0.8774092327928118 Sc
   0.8724175196521099    0.1301394504171164    0.3703105494726230 Sc
   0.8749470502579855    0.3683037785430144    0.1279543166809087 Sc
   0.6241739442439828    0.1255820553028990    0.1225502915570847 Sc
   0.6257902956806916    0.3751190404406746    0.3745309196815164 Sc
   0.8761255993433775    0.6272233254311204    0.8774392682347824 Sc
   0.8702105597081141    0.8723668883499160    0.6259455931274455 Sc
   0.6270225050118584    0.6223681406224636    0.6279888232210220 Sc
   0.3840190406813003    0.1161656788326645    0.1176929174456060 Se
   0.6148238928519231    0.3798957661083897    0.6153992541823730 Se
   0.6181015208716063    0.1178743190829868    0.8823135029676463 Se
   0.3826429708256299    0.3829774987158470    0.3828761517274481 Se
   0.3663306057066733    0.1323368513563520    0.6330902827075937 Se
   0.1362360286227007    0.8665631648068060    0.1345135283995885 Se
   0.1304034938472996    0.1308392362036878    0.8711661987630946 Se
   0.3625997588484930    0.8694159092899130    0.3624763498936270 Se
   0.3854896666160326    0.6137504972356566    0.6147433894942577 Se
   0.6219916738338498    0.8792030832638200    0.1177127457420247 Se
   0.6143253296148350    0.6175685176201504    0.3856326232779526 Se
   0.3830159083112099    0.8827323441653442    0.8823825164568144 Se
   0.3628132720980239    0.6328247599975706    0.1333826333992565 Se
   0.1335689847339661    0.3696990366071998    0.6383367508120348 Se
   0.1319362919483645    0.6330841077345218    0.3663567989117352 Se
   0.3641512770545705    0.3660729439988622    0.8687088698158447 Se
   0.8829045129202961    0.1171587095877573    0.6167681552015600 Se
   0.1166168255326787    0.3800885166063160    0.1129955116287962 Se
   0.1178110315328066    0.1223195569390106    0.3843030252480691 Se
   0.8824613515064057    0.3835185763285241    0.8800715728363836 Se
   0.8641756812796848    0.1319955320937722    0.1316694486430685 Se
   0.6332970401625753    0.8654723281418216    0.6320372682744972 Se
   0.6334893488210102    0.1344954221706377    0.3667689422691771 Se
   0.8665021097077578    0.8646929044846240    0.8691078413912146 Se
   0.8849447308962763    0.6177409860100578    0.1164849760971978 Se
   0.1208831348485000    0.8838245308876539    0.6122845012115307 Se
   0.1163101638547029    0.6182206987026112    0.8834351845175477 Se
   0.8811031964235609    0.8834865077693410    0.3853486091915635 Se
   0.8671603851608469    0.6336368685090772    0.6327726552358458 Se
   0.6341606235878399    0.3712612449643451    0.1309192409195857 Se
   0.6326321349466337    0.6336488296358258    0.8664449398409654 Se
   0.8682577091551461    0.3733007159612674    0.3694446674648104 Se
