Mg7 Sc16 Se32
1.0
  11.1003847944368736    0.0000000000000000    0.0000000000000000
   0.0000000000000000   11.1003847944368736    0.0000000000000000
  -0.0000000000000000   -0.0000000000000000   11.1003847944368736
Mg Sc Se
7 16 32
direct
   0.4976203585427140    0.0026878842619266    0.4994069041558251 Mg
   0.1938598829144967    0.3110183571686551    0.2532997388839527 Mg
   0.4994353578153140    0.4994187326119270    0.0009613164835812 Mg
   0.7508094643680678    0.2514239640237990    0.7540768856264910 Mg
   0.9995894942692458    0.0000409110465045    0.0004848734301916 Mg
   0.7507704755020516    0.7495934904869884    0.2487315471063366 Mg
   0.0034455660589106    0.4991824425719167    0.5027397979562543 Mg
   0.1251914036701363    0.8749059103614906    0.3747079389641149 Sc
   0.3750326337019136    0.1250373650247881    0.8749773696608268 Sc
   0.3724145470477304    0.3758493871768841    0.6249203141846428 Sc
   0.1248332993419581    0.1233754852036975    0.6249222616785316 Sc
   0.1249538692122194    0.3774117358290148    0.8732409907301636 Sc
   0.3745284684823036    0.6285619753479160    0.3772577077958438 Sc
   0.3753722298942938    0.8711691220989960    0.1233544651001617 Sc
   0.1252412780968953    0.6243636150984543    0.1262463958010185 Sc
   0.6263169631060802    0.8739293755969431    0.8735805533247679 Sc
   0.8742632190259612    0.1266746439233618    0.3771913416352005 Sc
   0.8743392066024993    0.3764693413175393    0.1256804438356789 Sc
   0.6210745508121130    0.1252959757263554    0.1250981210621225 Sc
   0.6224530596858637    0.3731063886505520    0.3719160461844355 Sc
   0.8789584720814805    0.6234632331999190    0.8745361707660648 Sc
   0.8746179444491584    0.8757223746665995    0.6240445904451016 Sc
   0.6275750715025492    0.6266216809007819    0.6256989549143762 Sc
   0.3835796776102262    0.1177688554202235    0.1174184759975877 Se
   0.6180896046545274    0.3824202590348434    0.6164998057919282 Se
   0.6157574808023706    0.1178091529838335    0.8825197541903109 Se
   0.3835049450245384    0.3834588384113756    0.3801420595348427 Se
   0.3657277124957203    0.1318977994415973    0.6320698611637432 Se
   0.1350897990307830    0.8673029037587118    0.1292538325906522 Se
   0.1298379346563623    0.1322954295944182    0.8675509885768351 Se
   0.3679818111505012    0.8677618512106707    0.3663124889968242 Se
   0.3822553429820432    0.6145000338885614    0.6154232493095262 Se
   0.6189411437615552    0.8814848462816579    0.1154259559498722 Se
   0.6172368435079070    0.6169699859249205    0.3828704957334045 Se
   0.3814339874520534    0.8825857857310522    0.8852855459831749 Se
   0.3669930761765424    0.6319756347570195    0.1330128738125541 Se
   0.1328703896511809    0.3671137011378576    0.6328829579825509 Se
   0.1355028144764709    0.6315164609659059    0.3664869896929139 Se
   0.3691688621733240    0.3693807418647772    0.8662368254009118 Se
   0.8808967701720918    0.1176218440229285    0.6158607023690407 Se
   0.1162000542361067    0.3861044105396748    0.1163483161973031 Se
   0.1171770712391210    0.1174890703078492    0.3828248414045104 Se
   0.8825169883211842    0.3835719111913727    0.8820057351644985 Se
   0.8664079256616773    0.1339790744526213    0.1323097739857396 Se
   0.6321501760828470    0.8677174656594292    0.6323488435589388 Se
   0.6316650543522311    0.1313426323479347    0.3684497246572917 Se
   0.8672244909987038    0.8669991638920677    0.8670387052039977 Se
   0.8820094175523588    0.6189378595451406    0.1186572404844777 Se
   0.1166876693047811    0.8827592269969182    0.6170279373751025 Se
   0.1159622316050199    0.6180965609943686    0.8850947427247090 Se
   0.8832619651436197    0.8830862190242112    0.3827482420324974 Se
   0.8635793612515470    0.6347867532859229    0.6313351809478034 Se
   0.6328352536988889    0.3672347098184633    0.1325991338068211 Se
   0.6333926520408497    0.6324424248801027    0.8675206521710860 Se
   0.8683723406655702    0.3672756792299225    0.3691570543484923 Se
