Mg7 Sc16 Se32
1.0
  11.1003847944368736    0.0000000000000000    0.0000000000000000
   0.0000000000000000   11.1003847944368736    0.0000000000000000
  -0.0000000000000000   -0.0000000000000000   11.1003847944368736
Mg Sc Se
7 16 32
direct
   0.5004772978942055    0.0059597808444809    0.4973202133972085 Mg
   0.2348054376158868    0.7625006254086555    0.7537253383037353 Mg
   0.4889958680173061    0.5092052463031690    0.0063533965494910 Mg
   0.7571475019025710    0.2542630956826744    0.7489866101416277 Mg
   0.9985476603960840    0.9991262025440307    0.0008735795231539 Mg
   0.7484428197449814    0.7443530358110783    0.2506601983756318 Mg
   0.2582387666917447    0.2520353013144939    0.2590877617439263 Mg
   0.1219171377370177    0.8801399678407107    0.3689762507009116 Sc
   0.3757904467912309    0.1222879122711470    0.8663399688814043 Sc
   0.3718850184859133    0.3649893950195332    0.6322880346507668 Sc
   0.1190569647404062    0.1185220618891188    0.6332451316296969 Sc
   0.1199571207607836    0.3804514096309121    0.8890129541930374 Sc
   0.3801692904642723    0.6183782553366234    0.3590264441316737 Sc
   0.3947332528059915    0.8704263888490148    0.1268035074320175 Sc
   0.1225852413023530    0.6430459095321839    0.1224863900554397 Sc
   0.6203916447884334    0.8754808899217416    0.8779506997929915 Sc
   0.8866544912041016    0.1171505261345478    0.3793428539563836 Sc
   0.8752830797254906    0.3758012206034701    0.1246542106340468 Sc
   0.6292187167811168    0.1131654430175476    0.1194112253011620 Sc
   0.6197318610099770    0.3800927077867443    0.3736781979815387 Sc
   0.8715937525242423    0.6208299778543507    0.8711212516844349 Sc
   0.8758308488748835    0.8566929731660091    0.6290669008887805 Sc
   0.6112436979979677    0.6271902857393471    0.6308456107052057 Sc
   0.3904533320637107    0.1204654209233498    0.1267223094141407 Se
   0.6230326517656746    0.3914355003291152    0.6076711025432114 Se
   0.6133937146889955    0.1236191512431164    0.8728530177113385 Se
   0.3994247780504420    0.3937827596814072    0.3789412229544332 Se
   0.3575734330264688    0.1201427263829559    0.6356765005602135 Se
   0.1254101833373623    0.8759430570206409    0.1260446597638703 Se
   0.1324070854807382    0.1334356066770397    0.8667366704134732 Se
   0.3705676209837832    0.8702531618513418    0.3743754420437269 Se
   0.3813751082682859    0.6152588994679561    0.6180967360590525 Se
   0.6175757917918089    0.8829446867373245    0.1205167226778027 Se
   0.6227564443640019    0.6168275930100481    0.3782171092483753 Se
   0.3807060206756858    0.8981007138564301    0.8829229024650784 Se
   0.3635539992719373    0.6366339108554980    0.1399733809104763 Se
   0.1312744256060052    0.3687147803088262    0.6331722785657399 Se
   0.1305750281676903    0.6376022222102341    0.3491308070724653 Se
   0.3681688545685635    0.3660425074830630    0.8664034503662846 Se
   0.8878473034358704    0.1059590882529271    0.6134672668496679 Se
   0.1152099977549693    0.3938475465982203    0.1110206259901732 Se
   0.1184060178136634    0.1274321697582783    0.3889240047804344 Se
   0.8828252293091883    0.3826687966082168    0.8825278055162412 Se
   0.8653452822627828    0.1305581502934611    0.1332357642283798 Se
   0.6265193751359537    0.8628018530229536    0.6263382179211872 Se
   0.6356845261881936    0.1442806779300563    0.3756086932771164 Se
   0.8525362645723874    0.8632293786808664    0.8801042844749164 Se
   0.8957081606106931    0.6329795601857910    0.1152755633835623 Se
   0.1111300457548713    0.8768557704696907    0.6225404523628441 Se
   0.1042223029527308    0.6300426943560328    0.8768783828618886 Se
   0.8808438610938785    0.8971383600359609    0.3714999500785290 Se
   0.8651401999942097    0.6340809254302715    0.6331246727892107 Se
   0.6329306791862962    0.3659608996984136    0.1333144791163913 Se
   0.6312979817743906    0.6333111486785452    0.8667906242621125 Se
   0.8670294691033559    0.3670776392008614    0.3666299488413196 Se
