Mg7 Sc16 Se32
1.0
  11.1003847944368736    0.0000000000000000    0.0000000000000000
   0.0000000000000000   11.1003847944368736    0.0000000000000000
  -0.0000000000000000   -0.0000000000000000   11.1003847944368736
Mg Sc Se
7 16 32
direct
   0.5086770130327615    0.9952679499721125    0.5108454478899718 Mg
   0.2374762246811479    0.7362156974131926    0.7467165869432091 Mg
   0.5136402226716148    0.5030205083651823    0.9932539917331640 Mg
   0.7496734697172898    0.2564914205356905    0.7512618093593203 Mg
   0.0977758410462520    0.1846681781438310    0.1571769411617744 Mg
   0.7490712060087429    0.7615108791941598    0.2547448819342621 Mg
   0.9967440294406790    0.4993874490891719    0.4959065726665235 Mg
   0.1285491036151992    0.8903032678688462    0.3709300596839937 Sc
   0.3663209203178696    0.1343486577871167    0.8879469978564879 Sc
   0.3629915571363918    0.3651451657672706    0.6314585022454223 Sc
   0.1241803570163270    0.1237560735362883    0.6209710490476446 Sc
   0.1287554038488264    0.3670596090917537    0.8578070533533461 Sc
   0.3740491650842732    0.6136798190450025    0.3740748105687547 Sc
   0.3687162745551469    0.8749111561009264    0.1292306499009886 Sc
   0.1115372544676352    0.6120696020065766    0.1243970011637306 Sc
   0.6184963963923422    0.8776934286603253    0.8737966344177073 Sc
   0.8661539277648880    0.1299946777843091    0.3759930677568285 Sc
   0.8743293465732260    0.3666116816559311    0.1267024031960311 Sc
   0.6252338075758970    0.1237017685326070    0.1255836309406807 Sc
   0.6273191657688511    0.3749927800898566    0.3826577998460728 Sc
   0.8850143900626807    0.6275695843792911    0.8849112217442189 Sc
   0.8653544600538488    0.8753713399416164    0.6124514531518557 Sc
   0.6238222505866826    0.6440591927192978    0.6197085302169176 Sc
   0.3826949091637519    0.1091611392408067    0.1120853380766180 Se
   0.6101447169153981    0.3793936373220326    0.6150917489174993 Se
   0.6033494790043544    0.1146934897414361    0.8807238514994814 Se
   0.3803963191218812    0.3891837207848252    0.3827013585355111 Se
   0.3763189589732887    0.1255553523206335    0.6359979312768294 Se
   0.1400507673432505    0.8685092637992455    0.1278809793227950 Se
   0.1457176933045015    0.1263861756763418    0.8645309146167021 Se
   0.3733108464406276    0.8635521824637300    0.3772230961176056 Se
   0.3857273377369922    0.6088330722122954    0.6243938787945741 Se
   0.6110761417905036    0.8773031497017790    0.1196679260393620 Se
   0.6293113992302786    0.6073166416125941    0.3698537697812538 Se
   0.3785681424853451    0.8870778499642825    0.8782523158230754 Se
   0.3670578313586590    0.6322036493545363    0.1343023016046430 Se
   0.1398144503716090    0.3484606227971498    0.6362847605437441 Se
   0.1328883596295189    0.6389329804471336    0.3670161768914899 Se
   0.3689040891589903    0.3762875508390471    0.8645665757606372 Se
   0.8871114572911043    0.1190212212583406    0.6242844417541368 Se
   0.1182395129344439    0.3832951000848273    0.1216140062578858 Se
   0.1148341514600655    0.1199617177446757    0.3785812606348299 Se
   0.8810480771639745    0.3827420249417280    0.8681170410551905 Se
   0.8660317168973783    0.1333016981497786    0.1321280770418534 Se
   0.6329853359166409    0.8670182312447942    0.6329306642782485 Se
   0.6293547684880320    0.1146812929348158    0.3739661300373292 Se
   0.8702666951351681    0.8730961005834470    0.8730155136859921 Se
   0.8873150517200150    0.6100195903217024    0.1183396870574392 Se
   0.1210719790174312    0.8787283556578145    0.6123668775832262 Se
   0.1212849869569764    0.6175362361677116    0.8783470940009132 Se
   0.8763929906404473    0.8891129968529971    0.3884411661274637 Se
   0.8655005757377112    0.6279641159363284    0.6333124672915093 Se
   0.6439768300304179    0.3645960098110617    0.1317844518792869 Se
   0.6278719731416578    0.6290874088065679    0.8722049993829235 Se
   0.8649395523502220    0.3770328452218256    0.3833521002363502 Se
