Mg7 Sc16 Se32
1.0
  11.1003847944368736    0.0000000000000000    0.0000000000000000
   0.0000000000000000   11.1003847944368736    0.0000000000000000
  -0.0000000000000000   -0.0000000000000000   11.1003847944368736
Mg Sc Se
7 16 32
direct
   0.5024149795685259    0.0050537481556055    0.4959748952167675 Mg
   0.2512566962813839    0.7525819249413981    0.7539369814759564 Mg
   0.5068989115924126    0.4994194544853036    0.0008964504477955 Mg
   0.7500180403197986    0.2501286246967088    0.7499693736419801 Mg
   0.1382760715586095    0.2425150301225905    0.2107443904723888 Mg
   0.7484796986233178    0.7488230335781006    0.2519437150546140 Mg
   0.9975191209801505    0.5026534541550608    0.4979418930887007 Mg
   0.1250068220198956    0.8749800113007643    0.3749952170511819 Sc
   0.3742934052821228    0.1256587433069835    0.8771134916696203 Sc
   0.3723734938231719    0.3691492477110735    0.6253836143947820 Sc
   0.1264816622830581    0.1246878233359714    0.6213202124494378 Sc
   0.1225129823264186    0.3774972832861025    0.8692591324055888 Sc
   0.3748976131004418    0.6252259747094270    0.3744687042381176 Sc
   0.3745942925485186    0.8767934810998889    0.1287632213157801 Sc
   0.1206932976640293    0.6283705184001174    0.1202763586181652 Sc
   0.6294960572560669    0.8731348009962152    0.8746131556036790 Sc
   0.8712778290870966    0.1257528115764489    0.3705091912512170 Sc
   0.8730736463177233    0.3801887873853960    0.1265016913569920 Sc
   0.6250258950814266    0.1250047610320452    0.1243557063126901 Sc
   0.6256295235323843    0.3788935319596172    0.3709867097762070 Sc
   0.8785550718694680    0.6222885526624801    0.8756957764346269 Sc
   0.8782509497591724    0.8713357704123684    0.6248549522936496 Sc
   0.6278335634724711    0.6248257546157980    0.6184338032439268 Sc
   0.3785406326981450    0.1196596903898271    0.1174223151007749 Se
   0.6225104176025122    0.3829752949184359    0.6181945798176319 Se
   0.6159287082309877    0.1151723391116639    0.8830356943070455 Se
   0.3794404192307215    0.3870674727306874    0.3838134985657283 Se
   0.3706829067135055    0.1337864148127343    0.6281986139194438 Se
   0.1328657421567166    0.8648228760482864    0.1322637151380252 Se
   0.1354141265896180    0.1324936334740841    0.8651756070209629 Se
   0.3685012927723593    0.8658997879734044    0.3698748828398894 Se
   0.3833801451184745    0.6133681068163993    0.6173423854215454 Se
   0.6198121748424862    0.8823196602501118    0.1149764475596352 Se
   0.6161448352877785    0.6105901295967977    0.3818111820765236 Se
   0.3834739995220110    0.8872846665068034    0.8807965403261993 Se
   0.3652307523355974    0.6316601396276991    0.1327295598548621 Se
   0.1307058586352796    0.3669390703731686    0.6365357396370735 Se
   0.1335267070003724    0.6302360163767990    0.3615712471674927 Se
   0.3629975738565882    0.3659724363823624    0.8697711344040512 Se
   0.8801923649670086    0.1172746301985807    0.6201132185779591 Se
   0.1196090215970527    0.3800444977320873    0.1133393767611425 Se
   0.1196132440303440    0.1128025784588086    0.3873972863108865 Se
   0.8828898175461372    0.3828895616991117    0.8832359991897787 Se
   0.8689424457378969    0.1317553270225139    0.1285637159272538 Se
   0.6329850237458581    0.8686212719020907    0.6313035286951975 Se
   0.6325624180525995    0.1333835752449558    0.3674848049461484 Se
   0.8666294235659783    0.8677025108129237    0.8677249242650656 Se
   0.8835040761138379    0.6166637430189584    0.1170677623645920 Se
   0.1166799697529496    0.8772814163196073    0.6181417885087617 Se
   0.1179161915205188    0.6186830761314333    0.8833695666996756 Se
   0.8843189412239356    0.8825317039168691    0.3807407885944178 Se
   0.8680917600553697    0.6317729026568940    0.6344545638485296 Se
   0.6323539014419156    0.3675678745710906    0.1319744340928005 Se
   0.6329567230493746    0.6330131096832946    0.8669041203448004 Se
   0.8648776626979077    0.3713965995163334    0.3671011991869760 Se
