Mg7 Sc16 Se32
1.0
  11.1003847944368736    0.0000000000000000    0.0000000000000000
   0.0000000000000000   11.1003847944368736    0.0000000000000000
  -0.0000000000000000   -0.0000000000000000   11.1003847944368736
Mg Sc Se
7 16 32
direct
   0.4986016191830286    0.9978919239250872    0.5014144907618864 Mg
   0.2449991906446406    0.7366412772894543    0.7531400874798914 Mg
   0.5097958281688186    0.4951842048034437    0.0015617581846843 Mg
   0.7506572212364568    0.2473896054127291    0.7497396357963548 Mg
   0.1061969595189571    0.1063327708500738    0.1171627966254818 Mg
   0.7327239050575368    0.7412542610298638    0.2517391970964452 Mg
   0.9960061449723421    0.4995652826626009    0.4852074198432895 Mg
   0.1278138197645129    0.8794701780987700    0.3677040304972339 Sc
   0.3746688233536820    0.1338789301380678    0.8952656342676591 Sc
   0.3751828007482152    0.3729474112301094    0.6276897287444888 Sc
   0.1283405991882380    0.1084899373740603    0.6236224998399912 Sc
   0.1233362188227532    0.3835140370595373    0.8762157046263499 Sc
   0.3759563078689868    0.6033903086217812    0.3841635818425851 Sc
   0.3830781717577998    0.8796233012956881    0.1171212490818515 Sc
   0.1381696847768158    0.6188118882021163    0.1362438403203737 Sc
   0.6434373529235656    0.8652573880784439    0.8798811937867266 Sc
   0.8665700461210202    0.1448767071716244    0.3791959941999171 Sc
   0.8668081565855699    0.3680870803767379    0.1304360556673871 Sc
   0.6257522154274039    0.1183605432488195    0.1278798169705362 Sc
   0.6185677879499393    0.3807211062217026    0.3630518872195552 Sc
   0.8779666235967766    0.6189484062169257    0.8775330354609286 Sc
   0.8938742634097627    0.8666585382077817    0.6290905609907027 Sc
   0.6219483434518431    0.6224926733501890    0.6284114236751720 Sc
   0.3916762133424901    0.0999378413700530    0.1273990100305184 Se
   0.6225391137042292    0.3925941910805277    0.6127617709669101 Se
   0.6042293473004617    0.1200091409285066    0.8755853178508353 Se
   0.3858074155530493    0.3825441225356261    0.3976045944775841 Se
   0.3636948626638938    0.1258064631709774    0.6493516448083667 Se
   0.1361591823750515    0.8723094937103129    0.1279936581216422 Se
   0.1278463741635870    0.1285023984021899    0.8695037677491978 Se
   0.3673718866487404    0.8684226967814650    0.3667834500598510 Se
   0.3798594812749819    0.6189325902006050    0.6162871319835734 Se
   0.6035202086690631    0.8693936145173740    0.1248143795667591 Se
   0.6183288222422221    0.6119917411694864    0.3796826332947417 Se
   0.3800787074077215    0.8836620923970234    0.8820014071869675 Se
   0.3580542693206649    0.6394094561032673    0.1198629210919564 Se
   0.1470708192379989    0.3715056966173576    0.6352892964791235 Se
   0.1345722680619760    0.6302078689777401    0.3860071712784620 Se
   0.3669846595996079    0.3675804712150377    0.8662573926384205 Se
   0.8941023978120195    0.1032632235787116    0.6290079397242905 Se
   0.1171652731173861    0.3902866650583999    0.1148430761521882 Se
   0.1258757941908294    0.1099867937542610    0.3656470245832784 Se
   0.8813037094138825    0.3700638078097574    0.8886161924976467 Se
   0.8672175678356107    0.1324482218635235    0.1339035577932488 Se
   0.6536188584903853    0.8693378209156147    0.6348228475054652 Se
   0.6400881594353648    0.1272022906290899    0.3515761978654076 Se
   0.8517712661553907    0.8817292768787327    0.8631226308553278 Se
   0.8897288933315679    0.6207114350670717    0.1172372243817644 Se
   0.1195061694331477    0.8768531118041907    0.6038564054810777 Se
   0.1170579451395752    0.6112287671295756    0.8867137445157004 Se
   0.8900957525692170    0.8944276925454189    0.3929178489388010 Se
   0.8777594295340004    0.6373125541337300    0.6248553046316129 Se
   0.6273945465670371    0.3607048494020458    0.1247901708053887 Se
   0.6231117274389554    0.6368474966265709    0.8606290044688630 Se
   0.8714019591955552    0.3555857584426937    0.3549154555688457 Se
