Mg7 Sc16 Se32
1.0
  11.1003847944368736    0.0000000000000000    0.0000000000000000
   0.0000000000000000   11.1003847944368736    0.0000000000000000
  -0.0000000000000000   -0.0000000000000000   11.1003847944368736
Mg Sc Se
7 16 32
direct
   0.5001297631701203    0.0004854903358420    0.4997426145218686 Mg
   0.2473748651570512    0.7480131081839748    0.7495237633035279 Mg
   0.5008271828519318    0.4962421834500830    0.0016939095559703 Mg
   0.7464580218887852    0.2487966598879417    0.7494903805619846 Mg
   0.0029032287608353    0.9976170869905888    0.0018413595084512 Mg
   0.7490925351475534    0.7499829049831046    0.2492142402124027 Mg
   0.9991445454511694    0.4997069322469532    0.4961697723754088 Mg
   0.1234273813792652    0.8740907884941626    0.3736761759395826 Sc
   0.3765414309457604    0.1222810549114419    0.8745646074733786 Sc
   0.3756275985364094    0.3753257112595308    0.6254341327729585 Sc
   0.1283834041046033    0.1224655115833070    0.6261397127247205 Sc
   0.1243541803010391    0.3763040328972029    0.8758589952862079 Sc
   0.3747704425669640    0.6249290845809146    0.3750170001776737 Sc
   0.3750316893485320    0.8740948232903387    0.1232697896896031 Sc
   0.1284030409255762    0.6224079944838719    0.1243386419559346 Sc
   0.6279983184785373    0.8745496324645813    0.8719257628815975 Sc
   0.8749884347198669    0.1246712219114068    0.3750569002503986 Sc
   0.8763066482117353    0.3738202840330499    0.1260331479399830 Sc
   0.6262166305087814    0.1262732979358376    0.1235868874283395 Sc
   0.6225112083658425    0.3725520701905086    0.3744348040098459 Sc
   0.8718289828336485    0.6268812244051063    0.8741180079787350 Sc
   0.8788246120342367    0.8749261358523053    0.6249419778162676 Sc
   0.6232379368716801    0.6249574818171305    0.6270078865739465 Sc
   0.3841284179923065    0.1170223985816746    0.1194724639631142 Se
   0.6165822382900527    0.3829104292888919    0.6163364779651925 Se
   0.6165209399644244    0.1166794869568314    0.8835533263801473 Se
   0.3839195626230495    0.3833996259555988    0.3819072116931966 Se
   0.3693463820370068    0.1320667367322783    0.6350991105163963 Se
   0.1303119601356961    0.8660774958162710    0.1305121199887174 Se
   0.1315575499984144    0.1302880177454249    0.8668626518126091 Se
   0.3676629924107332    0.8680986310989974    0.3674632020845094 Se
   0.3842891366992423    0.6186304478535296    0.6188812930936927 Se
   0.6143975959014912    0.8816408416677950    0.1152159595125949 Se
   0.6171503818658970    0.6171569369846701    0.3828640580102977 Se
   0.3832390763940584    0.8814084252323727    0.8831919911836001 Se
   0.3671239680683040    0.6360561793621021    0.1346187401869945 Se
   0.1324407934011875    0.3666595289308930    0.6317161156333468 Se
   0.1335335562078682    0.6320285600357727    0.3645875419730861 Se
   0.3664667166931699    0.3669174763592873    0.8668614043128492 Se
   0.8822723738470900    0.1167962294480622    0.6166834474466230 Se
   0.1169369113008364    0.3831924520101231    0.1160989498221949 Se
   0.1190469584647935    0.1173924600200937    0.3824720269432654 Se
   0.8828277276730353    0.3827868101826319    0.8827324285887366 Se
   0.8661259489552388    0.1296417182516820    0.1313572326449798 Se
   0.6332205517773337    0.8660672905916005    0.6358822502424457 Se
   0.6303141832227347    0.1319418568213257    0.3687887845089556 Se
   0.8685057703525045    0.8673373642737953    0.8673879746965897 Se
   0.8829389175086954    0.6184237810205319    0.1189387377092933 Se
   0.1170205936121908    0.8812960179800959    0.6170988568520601 Se
   0.1169676640546689    0.6169742418425695    0.8828002030503111 Se
   0.8836952749416471    0.8820582328312376    0.3826728177021664 Se
   0.8653916898838653    0.6327026102373265    0.6314265399967215 Se
   0.6345686398506168    0.3648535653875732    0.1341451083616541 Se
   0.6299332185875449    0.6324377676118146    0.8675207490498498 Se
   0.8649656719121206    0.3659498572151219    0.3646415251846178 Se
