Mg7 Sc16 Se32
1.0
  11.1003847944368736    0.0000000000000000    0.0000000000000000
   0.0000000000000000   11.1003847944368736    0.0000000000000000
  -0.0000000000000000   -0.0000000000000000   11.1003847944368736
Mg Sc Se
7 16 32
direct
   0.4998504125542139    0.0039734966492107    0.5005124586146009 Mg
   0.2482546561413031    0.7342888970773124    0.7577042769145991 Mg
   0.1709755197762009    0.2252048779888305    0.2580416863399734 Mg
   0.7470010348477871    0.2489691167296382    0.7488758997092773 Mg
   0.0093536421864088    0.0158174764923110    0.0013210339199644 Mg
   0.7546422711804257    0.7563982260158798    0.2419736650959041 Mg
   0.0002234370562958    0.5010787070403948    0.4987480006681219 Mg
   0.1302288983552650    0.8649067416208195    0.3590732951029180 Sc
   0.3718727583251613    0.1304230462215755    0.8685965651939733 Sc
   0.3786999006293549    0.3731730787532639    0.6361385197648238 Sc
   0.1262237944883570    0.1223830217393658    0.6249815901398308 Sc
   0.1359432477032575    0.3721474334688364    0.8768304428200189 Sc
   0.3753406279111896    0.6249512674439014    0.3747430999784701 Sc
   0.3659937375685929    0.8677774577639029    0.1278367797481649 Sc
   0.1294503968092408    0.6357835673472776    0.1287739063326616 Sc
   0.6188772370130872    0.8732393557941419    0.8607889531654939 Sc
   0.8883494437163342    0.1355614385771458    0.3654594368442392 Sc
   0.8797623837595424    0.3790609334593178    0.1187770387525482 Sc
   0.6270269555876333    0.1265316398324119    0.1392447185815884 Sc
   0.6261446794081220    0.3762357753433572    0.3761444195630002 Sc
   0.8660028282622542    0.6103938703305721    0.8697503335169597 Sc
   0.8691096298944823    0.8816213455996241    0.6240369448947258 Sc
   0.6223619230804764    0.6207554065610524    0.6248439151343469 Sc
   0.3763758620435243    0.1297674236289496    0.1130846879060454 Se
   0.6145388943512577    0.3804819138045359    0.6233145106865383 Se
   0.6238011088927298    0.1190419115207363    0.8783378364935822 Se
   0.3931483236685107    0.3702530362010356    0.3878603012888254 Se
   0.3572023967457983    0.1369563195404784    0.6323516994087860 Se
   0.1350072447092585    0.8615394343456277    0.1352149073440492 Se
   0.1313748425755735    0.1267409848750302    0.8715762604424140 Se
   0.3752349782086108    0.8534674047207222    0.3787352537194507 Se
   0.3832591868496726    0.6184069246757867    0.6111111223605098 Se
   0.6152644966891164    0.8888800549207966    0.1141355322221174 Se
   0.6068035068516076    0.6095012856865365    0.3774286453008378 Se
   0.3909965663779881    0.8795915004017267    0.8857925093812669 Se
   0.3711104068016250    0.6252331268344907    0.1291603982751369 Se
   0.1453809381552056    0.3796661034079969    0.6280435292049966 Se
   0.1318869183179125    0.6314951492231046    0.3678731143715987 Se
   0.3654362843822518    0.3527777497062385    0.8755630306514631 Se
   0.8863219461641699    0.1065960243022537    0.6277664731502328 Se
   0.1199822956880256    0.3935034639961046    0.1054005014817176 Se
   0.1209460064591322    0.1202826458433355    0.3772540187674691 Se
   0.8831101344488579    0.3836735283784205    0.8808868370146091 Se
   0.8719805077842945    0.1307720675374318    0.1154606113142506 Se
   0.6271565078705882    0.8762298059029092    0.6432189363932819 Se
   0.6347770586854031    0.1347314262797599    0.3559275671340374 Se
   0.8703537884460566    0.8655188600126528    0.8504531200171912 Se
   0.8843091302747558    0.6162549208990044    0.1180694318427556 Se
   0.1189695397830650    0.8841211007652207    0.6120498773990060 Se
   0.1225871329456951    0.6216492292994837    0.8960198298541880 Se
   0.8725708789961453    0.8738970676674385    0.3700383886843799 Se
   0.8571405089718517    0.6236465199459986    0.6322370033232666 Se
   0.6374948248787823    0.3598320670975818    0.1393189008986015 Se
   0.6343677078134443    0.6325259635984500    0.8693269776886693 Se
   0.8600031844526058    0.3663443479528688    0.3604537784770715 Se
