Mg7 Sc16 Se32
1.0
  11.1003847944368736    0.0000000000000000    0.0000000000000000
   0.0000000000000000   11.1003847944368736    0.0000000000000000
  -0.0000000000000000   -0.0000000000000000   11.1003847944368736
Mg Sc Se
7 16 32
direct
   0.4991003341988989    0.0083833882751561    0.4957225700163225 Mg
   0.2041825846648324    0.2072373390553649    0.1582988670658440 Mg
   0.5054435496255175    0.4945475544899530    0.9934783120433179 Mg
   0.7528457291291558    0.2485545586654885    0.7506422217814621 Mg
   0.0064746739938863    0.9932508233456100    0.0058977060236846 Mg
   0.7571671917217156    0.7374736104166224    0.2490848669847471 Mg
   0.9984440929383066    0.4989160546862122    0.4989931205615091 Mg
   0.1258064178802476    0.8773767908890435    0.3757304388892899 Sc
   0.3706958208932667    0.1360710604374782    0.8809027454036065 Sc
   0.3797825921197800    0.3757235768535760    0.6214197514228093 Sc
   0.1165059812416144    0.1245912133221737    0.6104955452601013 Sc
   0.1157696922334047    0.3695174337591506    0.8718294558336490 Sc
   0.3788509916365916    0.6367280122163071    0.3739112150500185 Sc
   0.3784008908961687    0.8779714895221361    0.1247830570046418 Sc
   0.1247087379749686    0.6230405490399783    0.1235456012998577 Sc
   0.6241357111343216    0.8743865359549494    0.8762342009967070 Sc
   0.8732736725803387    0.1245760702657404    0.3761258365271430 Sc
   0.8766564953764991    0.3772577842301192    0.1280054263542006 Sc
   0.6158343757780835    0.1272852147375267    0.1320005006597521 Sc
   0.6291469361286504    0.3861620748319268    0.3803381163095116 Sc
   0.8742782661328259    0.6294143160485239    0.8712518929136319 Sc
   0.8873859286536180    0.8790306431871848    0.6204263799168325 Sc
   0.6248247390763981    0.6260450802760013    0.6191247495682517 Sc
   0.3811945770259844    0.1216494774168091    0.1208145561108076 Se
   0.6210994755822055    0.3947147882054269    0.6200427222831690 Se
   0.6080672297391395    0.1143773666425631    0.8804986864545178 Se
   0.3812995264544117    0.3830130663869778    0.3954074400414920 Se
   0.3648306036864360    0.1376583917923983    0.6299802654462816 Se
   0.1342980802973173    0.8593931725182302    0.1314234565935975 Se
   0.1302038662192089    0.1209695986782712    0.8699868142643701 Se
   0.3672851257411179    0.8674459426690755    0.3672651699180114 Se
   0.3693753731343100    0.6209609205737980    0.6245981152897284 Se
   0.6231274174741785    0.8855751046328535    0.1212805594253079 Se
   0.6175057278098225    0.6175342169335069    0.3833245454955563 Se
   0.3809017300542956    0.8740783134025443    0.8788859444633698 Se
   0.3703717514117537    0.6195979857679778    0.1357708913878248 Se
   0.1329849411093992    0.3706015033063406    0.6250912472263056 Se
   0.1409143954830227    0.6426547870022405    0.3567993427413154 Se
   0.3707578441145962    0.3667916875974577    0.8674666545313047 Se
   0.8760102382138294    0.1202922093398841    0.6223409522888845 Se
   0.1244481701707978    0.3713901387672147    0.1212524082821078 Se
   0.1229023502322170    0.1242472132843827    0.3963103985665521 Se
   0.8881860156364940    0.3669863939309123    0.8856069890234574 Se
   0.8740825566929987    0.1345502372598621    0.1399057259172707 Se
   0.6371118800548435    0.8644635993612251    0.6306765079221976 Se
   0.6182405368066716    0.1305699532107794    0.3681963979471519 Se
   0.8658126845684767    0.8661756933089205    0.8670564176734413 Se
   0.8727327280610498    0.6121027812166664    0.1082105504113114 Se
   0.1131548276304529    0.8801482635325966    0.6007570506472675 Se
   0.1163090285840569    0.6206759417725972    0.8890347762088419 Se
   0.8957076561423388    0.8814745441327770    0.3892765749465574 Se
   0.8661199890097190    0.6309637671676241    0.6339247685042891 Se
   0.6403155332719297    0.3692557854617839    0.1397174007478394 Se
   0.6457181545822909    0.6341095796641483    0.8619870470241406 Se
   0.8675510513680920    0.3676072599237060    0.3669007565382229 Se
