Mg7 Sc16 Se32
1.0
  11.1003847944368736    0.0000000000000000    0.0000000000000000
   0.0000000000000000   11.1003847944368736    0.0000000000000000
  -0.0000000000000000   -0.0000000000000000   11.1003847944368736
Mg Sc Se
7 16 32
direct
   0.4863592282843823    0.9902436192253377    0.4893512191049612 Mg
   0.2311601436500191    0.3335850875859064    0.3306992811649264 Mg
   0.5149729285044415    0.5056181221021927    0.0026411067069155 Mg
   0.7374990657710712    0.2544023625082581    0.7470907372077886 Mg
   0.0038064136661126    0.0025905145176248    0.0006986308063629 Mg
   0.7504633103430739    0.7503915085848463    0.2497384929482475 Mg
   0.9944522209450851    0.4915935615256846    0.4905342386131557 Mg
   0.1124897946453799    0.8765541407212235    0.3676676305519814 Sc
   0.3720470414201607    0.1213058768340291    0.8756260871079284 Sc
   0.3830666683913515    0.3700489911987322    0.6195720714508426 Sc
   0.1338285013506123    0.1317268740020660    0.6208151323352150 Sc
   0.0990882551421194    0.3726804379853805    0.8813178258133234 Sc
   0.3661867748369820    0.6223798524069598    0.3728022766355328 Sc
   0.3748151820562450    0.8977517892310865    0.1326917443871082 Sc
   0.1212845879153394    0.6198168961097357    0.1344105266291355 Sc
   0.6366499207083173    0.8771663525348713    0.8889735397801899 Sc
   0.8794387300313504    0.1372350079324065    0.3532034875792128 Sc
   0.8858102963348544    0.3833140201923841    0.1149227784530097 Sc
   0.6264022972538099    0.1165021917511353    0.1209040148040930 Sc
   0.6287061692779490    0.3904077366819504    0.3589880111880581 Sc
   0.8765015303681032    0.6273970893059124    0.8759626411415601 Sc
   0.8789071252406057    0.8753188078143550    0.6243040243325316 Sc
   0.6259054007750154    0.6314703923364252    0.6203313379796387 Sc
   0.3812000644829993    0.1194690860188919    0.1174133028890228 Se
   0.6318182211434124    0.3955791577053155    0.6101539311444042 Se
   0.6285735975158496    0.1052728428392051    0.8862444078891034 Se
   0.3896433587129749    0.3868179475532870    0.3798114660118387 Se
   0.3776860670280420    0.1348489907863479    0.6274244322866904 Se
   0.1329078763007423    0.8670823403482054    0.1330682604386081 Se
   0.1377856733265103    0.1224502766898651    0.8695085439714406 Se
   0.3671732027690810    0.8660679511079297    0.3721956208985656 Se
   0.3932428368982606    0.6212047378154241    0.6144914661513150 Se
   0.6181644261096919    0.8933795434891674    0.1008072902772615 Se
   0.6167567605525230    0.5978579688262962    0.3773438106561853 Se
   0.3749311085647977    0.8828020550382237    0.8808352359210746 Se
   0.3695566210916035    0.6302094360289601    0.1346005025249473 Se
   0.1278964018505908    0.3709540604368264    0.6435582250092383 Se
   0.1230721466365976    0.6396303677859138    0.3802365072603168 Se
   0.3778958795463120    0.3732208596695349    0.8568699121685137 Se
   0.8852407197731010    0.1194973668344335    0.6227355093421886 Se
   0.1205619325073241    0.3853699822480495    0.1197187291873722 Se
   0.1190502566533186    0.1215314790680343    0.3605434765486790 Se
   0.8709809141375862    0.3925596815269998    0.8877747700354844 Se
   0.8636734502054549    0.1525901559294184    0.1232780612280638 Se
   0.6328732050873075    0.8667076613377339    0.6329947773176631 Se
   0.6177355965224450    0.1260846388043711    0.3699386230614142 Se
   0.8657220431943187    0.8529994234653534    0.8839676201490122 Se
   0.8789209671701027    0.6156695555884314    0.1181345143754832 Se
   0.1024573871347252    0.8745594815319812    0.5986317027368371 Se
   0.1272881033509040    0.6412734988844615    0.8838268986774781 Se
   0.8713956921933919    0.8633048138127253    0.3960623660770258 Se
   0.8705102934763395    0.6309303643301920    0.6283409218958180 Se
   0.6099861019837359    0.3745763559888687    0.1364762529085167 Se
   0.6481854493066813    0.6294169323996901    0.8634817777997710 Se
   0.8687188664862040    0.3632329722848680    0.3819588073845601 Se
