Mg7 Sc16 Se32
1.0
  11.1003847944368736    0.0000000000000000    0.0000000000000000
   0.0000000000000000   11.1003847944368736    0.0000000000000000
  -0.0000000000000000   -0.0000000000000000   11.1003847944368736
Mg Sc Se
7 16 32
direct
   0.4966099434727024    0.9994580713327643    0.4999634942489440 Mg
   0.2413269619100341    0.7507094381546913    0.7491612626563811 Mg
   0.5051488523943209    0.4970811623649092    0.0033490358918988 Mg
   0.7571659128825839    0.2502116371674427    0.7498251874474944 Mg
   0.0002192081868514    0.0036420219563047    0.9958664436946159 Mg
   0.7526295444427614    0.7517132759210307    0.2495586238973482 Mg
   0.2151621447206944    0.2452051918990051    0.1877550947896208 Mg
   0.1242422862813904    0.8777397728320433    0.3796939289595871 Sc
   0.3797438251357968    0.1219786617816010    0.8800265710710320 Sc
   0.3749704539096319    0.3751180842912153    0.6247952772634197 Sc
   0.1244869996265794    0.1165989161679347    0.6269630985961739 Sc
   0.1244102477691254    0.3768956689893704    0.8765353804866852 Sc
   0.3758959056880576    0.6242102409848299    0.3770707005614695 Sc
   0.3750149520099258    0.8752905164155347    0.1217596521455337 Sc
   0.1242847429462639    0.6233376742474630    0.1206108231896892 Sc
   0.6290577989164488    0.8745835060686863    0.8749480319747646 Sc
   0.8799934643194751    0.1257120941923566    0.3830546090198682 Sc
   0.8803892217479531    0.3731669778916116    0.1304751599401116 Sc
   0.6232450637432067    0.1246772297266752    0.1248181009250648 Sc
   0.6166948014402344    0.3782980228292907    0.3778712661905482 Sc
   0.8730921200087729    0.6259519238257907    0.8793154521976970 Sc
   0.8796069516354588    0.8827509764679309    0.6201243451367265 Sc
   0.6283989765513710    0.6284914747333693    0.6280460361208117 Sc
   0.3824725891287009    0.1147916142044708    0.1147152846862348 Se
   0.6224738319297803    0.3772906950361290    0.6134116716524062 Se
   0.6220000889446577    0.1253465471561665    0.8791241597420854 Se
   0.3864847588170168    0.3726676444420751    0.3840633213271449 Se
   0.3697362257571388    0.1331066525443571    0.6337427405061958 Se
   0.1261512800253256    0.8709458068773172    0.1366615121865071 Se
   0.1258914279217232    0.1379638859082793    0.8673704495093026 Se
   0.3682980537327095    0.8612469086951321    0.3664630737820686 Se
   0.3817761380671760    0.6250490678321734    0.6129269291322892 Se
   0.6138325686469760    0.8726590661437087    0.1180476129440942 Se
   0.6174955749295793    0.6166736246413298    0.3806847027243626 Se
   0.3863458325059319    0.8788668634815516    0.8787200423922833 Se
   0.3666591115019817    0.6320462230609902    0.1343851750664079 Se
   0.1375591437605422    0.3644022445372830    0.6244141230040955 Se
   0.1290748952049608    0.6328256114615609    0.3649045615565698 Se
   0.3665854817564209    0.3664835409878705    0.8669124040815803 Se
   0.8767230406143729    0.1123264163265874    0.6131189306582678 Se
   0.1158737558639943    0.3836361227471729    0.1162169137823162 Se
   0.1170761526637741    0.1197034090194380    0.3818114064627236 Se
   0.8833956638160610    0.3829421263568773    0.8826509722212641 Se
   0.8717794693500778    0.1339788245506320    0.1404620722267537 Se
   0.6326786341252451    0.8689254550913224    0.6394259655697088 Se
   0.6332001242587987    0.1320993843811047    0.3668803103674063 Se
   0.8724753772045400    0.8696306517620637    0.8700423891568871 Se
   0.8896224543528726    0.6159068193585731    0.1160202416962840 Se
   0.1190517659472385    0.8817720131742089    0.6187620175500538 Se
   0.1193306412835853    0.6197307126158550    0.8813829081781357 Se
   0.8825076175987665    0.8828774251756978    0.3824863849325347 Se
   0.8690464856941518    0.6331368334679668    0.6333559303228083 Se
   0.6282890036001808    0.3688660759663423    0.1332780218997587 Se
   0.6273637169506684    0.6412122207343396    0.8711463154009551 Se
   0.8623332743234117    0.3649668254129316    0.3661944266940201 Se
