Mg7 Sc16 Se32
1.0
  11.1003847944368736    0.0000000000000000    0.0000000000000000
   0.0000000000000000   11.1003847944368736    0.0000000000000000
  -0.0000000000000000   -0.0000000000000000   11.1003847944368736
Mg Sc Se
7 16 32
direct
   0.5007816964972153    0.0005967611570953    0.4984786745215865 Mg
   0.2499729961363330    0.7439141022359719    0.7520323025944921 Mg
   0.1547168130124603    0.2422639743217341    0.2227323371412307 Mg
   0.7463775338377261    0.2505309053465265    0.7473969359842492 Mg
   0.0047597737215986    0.9992999257303041    0.0016976112715277 Mg
   0.7496587045807540    0.7506645087481046    0.2484775682487608 Mg
   0.9950908040943212    0.5039315479947917    0.5004607666305376 Mg
   0.1230291996561020    0.8693681000056326    0.3793963452148675 Sc
   0.3687272596703235    0.1269571814267396    0.8720955124458065 Sc
   0.3773719648113223    0.3783215559890327    0.6293345465187022 Sc
   0.1269086884748502    0.1240870630654788    0.6254656444511312 Sc
   0.1270053245555653    0.3728159412499001    0.8700723023411306 Sc
   0.3718125361118947    0.6275840468519194    0.3743457737784891 Sc
   0.3757763268513493    0.8732874080033555    0.1225178488134555 Sc
   0.1242770152446082    0.6270233409438298    0.1230698074919189 Sc
   0.6270030951617834    0.8737587370925439    0.8776524354429672 Sc
   0.8750045640284551    0.1249856644124722    0.3750170418842653 Sc
   0.8757586269406341    0.3746282428913971    0.1252880809119132 Sc
   0.6285029154304226    0.1243911621019353    0.1298443891481506 Sc
   0.6260814471973907    0.3718700831534330    0.3754592908874766 Sc
   0.8755715964908947    0.6267688369334560    0.8749967726078396 Sc
   0.8763311193473160    0.8762077883385876    0.6251975095518517 Sc
   0.6243167073327387    0.6284778893235686    0.6237399050457664 Sc
   0.3821528132881810    0.1173380788257763    0.1161055936295542 Se
   0.6141299703677250    0.3850360235372812    0.6164119800469003 Se
   0.6179832847689017    0.1165528932772908    0.8871040295459363 Se
   0.3818985707820983    0.3830881587980426    0.3862296595338724 Se
   0.3714157822020281    0.1292224272083270    0.6289730206693142 Se
   0.1326697786145986    0.8681056033863137    0.1337359655028493 Se
   0.1348681403853723    0.1342484010390371    0.8635710117605454 Se
   0.3634649719095973    0.8661877161388656    0.3661504549604138 Se
   0.3853117414898675    0.6141892721141003    0.6162088263722634 Se
   0.6169973656715160    0.8832315095179812    0.1173579490470154 Se
   0.6166752163425507    0.6176698164948857    0.3828992021364027 Se
   0.3855780728190364    0.8786460691007816    0.8835601480434400 Se
   0.3698224798089149    0.6313054638974137    0.1366392131228864 Se
   0.1341323779643880    0.3625575884977634    0.6305973669212300 Se
   0.1334771104284298    0.6377213541741614    0.3670099977416045 Se
   0.3641284857779586    0.3711020553129872    0.8667993640568959 Se
   0.8827431979385593    0.1174833987080490    0.6174617228995393 Se
   0.1183798076654930    0.3828391330855831    0.1246601944961475 Se
   0.1203082091456452    0.1122382331619039    0.3822361695511317 Se
   0.8808056041647493    0.3851550652296449    0.8841633942902691 Se
   0.8651756688518251    0.1398884230091355    0.1309978508319876 Se
   0.6330031817941429    0.8671875572077133    0.6327653877310870 Se
   0.6335937737408226    0.1354961942211061    0.3666833357492552 Se
   0.8689185772066002    0.8708051523551954    0.8671336600478511 Se
   0.8829126535415630    0.6172143258328560    0.1171985994139400 Se
   0.1152022704545911    0.8865888936343790    0.6231308433099761 Se
   0.1120577124353985    0.6141119549400843    0.8825148587950911 Se
   0.8825351476746259    0.8830665523690615    0.3828496276100790 Se
   0.8613778843382287    0.6285229064051632    0.6353512283373840 Se
   0.6379616198612795    0.3697224440504581    0.1306494806599708 Se
   0.6332460530688521    0.6310568812527232    0.8659559175316228 Se
   0.8662287280990956    0.3691006014982852    0.3731633045759111 Se
