Mg7 Sc16 Se32
1.0
  11.1003847944368736    0.0000000000000000    0.0000000000000000
   0.0000000000000000   11.1003847944368736    0.0000000000000000
  -0.0000000000000000   -0.0000000000000000   11.1003847944368736
Mg Sc Se
7 16 32
direct
   0.4977317641344369    0.0001225602143452    0.4974891291273325 Mg
   0.2403871359358568    0.7444483102785359    0.7592588973289698 Mg
   0.5059938582618745    0.5178430256263956    0.0106429793397020 Mg
   0.7663757180873633    0.2477103175475793    0.7410680428008376 Mg
   0.0074720947359756    0.9866956693254293    0.0035868334174932 Mg
   0.7392966103180350    0.7508945360211922    0.2263704575205212 Mg
   0.1504125835480895    0.3493298013126967    0.3402642175123118 Mg
   0.1325355085434225    0.8888553463895995    0.3749939582913162 Sc
   0.3584124589959419    0.1297798128415300    0.8871556383116809 Sc
   0.3747213046381414    0.3753480714040157    0.6260744152026801 Sc
   0.1268148869485722    0.1125948652689945    0.6399138999651736 Sc
   0.1259895425210986    0.3675592501777601    0.8660794291779410 Sc
   0.3805804281115414    0.6191093737433081    0.3745410283956785 Sc
   0.3739541638825994    0.8753300638405470    0.1267827215165228 Sc
   0.1089821163935715    0.6378594516944778    0.1186688508842901 Sc
   0.6250380830337329    0.8749765640922530    0.8749167089642327 Sc
   0.8866195757037141    0.1479761597834261    0.3678660661380105 Sc
   0.8716073445887269    0.3655714483726246    0.1220017821868931 Sc
   0.6263412332739937    0.1172934904670678    0.1191748090407319 Sc
   0.6308896457012252    0.3731858903105189    0.3753083632945818 Sc
   0.8718313719900501    0.6269737636163459    0.8749213907303114 Sc
   0.8707930800220106    0.8865308618428057    0.6215571821764405 Sc
   0.6204744114832780    0.6211592889157126    0.6245611372645257 Sc
   0.3936257549692980    0.1216713796785864    0.1133406112458468 Se
   0.6225397837136799    0.3807419427638566    0.6242121631238716 Se
   0.6153124530019201    0.1187436526875097    0.8832927952063726 Se
   0.3922836736284036    0.3934186836984875    0.3625193094512120 Se
   0.3670806864122015    0.1328835541283597    0.6328874315744666 Se
   0.1410391718799875    0.8606049561490616    0.1312374020767139 Se
   0.1225580617075083    0.1251745899043221    0.8574970364861545 Se
   0.3677251730362919    0.8700048049600667    0.3698063780845392 Se
   0.3784839416247549    0.6338558073307261    0.6233633112792453 Se
   0.6154625985991439    0.8840328053959879    0.1152127871407861 Se
   0.5966393042048423    0.6207313936341805    0.3949269374184468 Se
   0.3834741619879870    0.8776528758367032    0.8755162295863875 Se
   0.3628204187987042    0.6331865318632686    0.1294024398899649 Se
   0.1260324414457344    0.3736721200322282    0.6259547863233240 Se
   0.1392349275600734    0.6346305714143060    0.3769667197631942 Se
   0.3643943546874461    0.3694626656291689    0.8812345592703995 Se
   0.8821948182674766    0.1158615055187150    0.6168893165786266 Se
   0.1068458956404119    0.3798109300814780    0.1295026155068526 Se
   0.1075053369134894    0.1195476413152259    0.3942748726043201 Se
   0.8768641951786953    0.3895960505195505    0.8908374538715537 Se
   0.8634776908688954    0.1248544383966222    0.1262342464901146 Se
   0.6477483489092968    0.8814528767522060    0.6241352082967461 Se
   0.6196644725316681    0.1491639410451486    0.3706614753861588 Se
   0.8477316651432623    0.8737225173036938    0.8603454452563352 Se
   0.8839552100068099    0.5985722608039482    0.1161580146345470 Se
   0.1128530231237615    0.8847185285185802    0.6195019060332995 Se
   0.1124098845697362    0.6291436936977960    0.8932344304784048 Se
   0.8831416478144191    0.8834424717300444    0.3827038907224294 Se
   0.8621962199307999    0.6239148235093247    0.6242380276958007 Se
   0.6270131959301264    0.3579295004818592    0.1339335444379261 Se
   0.6461735128411681    0.6338499780550383    0.8577200835862304 Se
   0.8678065340983998    0.3648202690810318    0.3652153189483456 Se
