Mg7 Sc16 Se32
1.0
  11.1003847944368736    0.0000000000000000    0.0000000000000000
   0.0000000000000000   11.1003847944368736    0.0000000000000000
  -0.0000000000000000   -0.0000000000000000   11.1003847944368736
Mg Sc Se
7 16 32
direct
   0.5042841606856991    0.0019296473573037    0.4995544932456636 Mg
   0.2430797599119035    0.2554373870073778    0.2511432926548737 Mg
   0.5086111741893867    0.4933035998842795    0.9998050853494088 Mg
   0.7500380388069920    0.2555920252021293    0.7378462918924239 Mg
   0.9990281130766796    0.9988794416731875    0.0090295009565917 Mg
   0.7527708381406106    0.7507112850367441    0.2479102498733091 Mg
   0.0026041332886735    0.5044856104746788    0.4988187064863879 Mg
   0.1183509663914556    0.8777387948802818    0.3754049003154231 Sc
   0.3757724404295403    0.1255442506745075    0.8756050861598437 Sc
   0.3788659912367989    0.3666302905130691    0.6323501878253198 Sc
   0.1251601157802513    0.1283405292919658    0.6217344317722360 Sc
   0.1245809230230239    0.3751070116279345    0.8747952537261698 Sc
   0.3656059351174669    0.6239083141775816    0.3755849226243713 Sc
   0.3693262348167077    0.8762680808376873    0.1274682530410881 Sc
   0.1252907673702187    0.6218473020937249    0.1254387582665281 Sc
   0.6295192596089026    0.8675906227496621    0.8641532824403471 Sc
   0.8726510162766753    0.1254943480760972    0.3749344278268141 Sc
   0.8691446202279078    0.3711500861640241    0.1312518881793906 Sc
   0.6220781055591468    0.1274413820330626    0.1161939185729308 Sc
   0.6242508236169069    0.3750776699304562    0.3738908509610342 Sc
   0.8727406106310385    0.6289697060690761    0.8681983219418158 Sc
   0.8737504343770829    0.8754204776194289    0.6255586947604787 Sc
   0.6247350518278406    0.6248591714882532    0.6242242710282951 Sc
   0.3825769674641636    0.1157822087014719    0.1166035487679538 Se
   0.6147577615132296    0.3813214161742496    0.6144162648111542 Se
   0.6199050795174779    0.1113514316732563    0.8855843262152379 Se
   0.3798196697434777    0.3766981445620776    0.3912740719129752 Se
   0.3617327318278346    0.1278240216302842    0.6281989442163040 Se
   0.1307530904638070    0.8671129878320166    0.1366367261090372 Se
   0.1334683858860181    0.1319437551100521    0.8681273913392299 Se
   0.3698715180393219    0.8783689020293246    0.3726167383612463 Se
   0.3870490948830008    0.6211037413026995    0.6194665874673275 Se
   0.6244323696132180    0.8816483612244259    0.1224775152919504 Se
   0.6213630301733699    0.6153577002267272    0.3798971415540339 Se
   0.3824281508649534    0.8825552507771370    0.8805234264237930 Se
   0.3761999814561761    0.6328445882879046    0.1265719655576323 Se
   0.1327726973790632    0.3658408212449692    0.6322866970486897 Se
   0.1450998662043169    0.6308110250202535    0.3635678280299873 Se
   0.3685785198231323    0.3645575006531300    0.8658751100885851 Se
   0.8828683038628983    0.1170896869229106    0.6171378841836368 Se
   0.1104109982277653    0.3782222442712480    0.1154575779942657 Se
   0.1098605871076064    0.1226489778595677    0.3914967732496983 Se
   0.8819073389500813    0.3822293665498406    0.8824961988218422 Se
   0.8671237851769634    0.1362808455431805    0.1341160396590659 Se
   0.6270182320373908    0.8681224676031440    0.6302638018903512 Se
   0.6343537638522191    0.1386627231910315    0.3680676271416571 Se
   0.8666583076343911    0.8658791393854842    0.8734151482161583 Se
   0.8817216619673961    0.6172500033301812    0.1129790208804308 Se
   0.1093918679661482    0.8805673699750453    0.6256429410453315 Se
   0.1173543924429831    0.6242551861826890    0.8739568546215637 Se
   0.8807345828617500    0.8806958990854975    0.3814560054025619 Se
   0.8772339825629846    0.6388137232262985    0.6388909284521590 Se
   0.6366187230106639    0.3676105040311941    0.1374316183387972 Se
   0.6206055741045018    0.6333767622796854    0.8635413130616851 Se
   0.8633336305967929    0.3710977183539219    0.3578522396998145 Se
