Mg7 Sc16 Se32
1.0
  11.1003847944368736    0.0000000000000000    0.0000000000000000
   0.0000000000000000   11.1003847944368736    0.0000000000000000
  -0.0000000000000000   -0.0000000000000000   11.1003847944368736
Mg Sc Se
7 16 32
direct
   0.2497134357098793    0.1929425414985833    0.3082705956940021 Mg
   0.2487619913912992    0.7516937267927676    0.7504343454907924 Mg
   0.5000650013560696    0.5000259507809598    0.9999956519928777 Mg
   0.7462714722481359    0.2429384297920517    0.7538210991005324 Mg
   0.9955167886218249    0.0000134859568026    0.0129428848305976 Mg
   0.7496335836824841    0.7461707097540788    0.2527928640364029 Mg
   0.0026816145228541    0.5048566438429066    0.4998032794276966 Mg
   0.1202381427692640    0.8763992257730323    0.3617876501163290 Sc
   0.3727705804159587    0.1263509316528337    0.8767598969009753 Sc
   0.3781339918879733    0.3730018005057568    0.6277899078293391 Sc
   0.1353636065336594    0.1310976170106269    0.6181375413590249 Sc
   0.1253699654857992    0.3736869086955839    0.8808171214693026 Sc
   0.3696067106847873    0.6282640350651619    0.3745378991989773 Sc
   0.3642844299958104    0.8819199523546271    0.1281732167491270 Sc
   0.1275537286210148    0.6215524994847592    0.1238031065136554 Sc
   0.6303368292702096    0.8751569172566380    0.8678162477759880 Sc
   0.8745480516824579    0.1261154049267793    0.3613377792142765 Sc
   0.8748572567129415    0.3706224715071427    0.1279626666881244 Sc
   0.6225439560305205    0.1204299081980548    0.1291576633658690 Sc
   0.6318816522756981    0.3683821179303349    0.3712947467412766 Sc
   0.8729708910978179    0.6261954921038175    0.8777027853762740 Sc
   0.8859568402775311    0.8787349090017025    0.6298337445472008 Sc
   0.6217908689930292    0.6218044207205669    0.6258711024777438 Sc
   0.3845100637671519    0.1100386990431617    0.1123221265307989 Se
   0.6182811472175067    0.3827062940896923    0.6163329050270949 Se
   0.6127023000219202    0.1124560854883208    0.8739030771831893 Se
   0.3860356348149016    0.3822503679487958    0.3764910629288614 Se
   0.3796776667585749    0.1375310302070708    0.6359298107110729 Se
   0.1314011738095688    0.8593922154974182    0.1312605436049135 Se
   0.1375326508856560    0.1274307763780568    0.8555610966173400 Se
   0.3685561858412342    0.8654783184443955    0.3671148246415357 Se
   0.3789015310885772    0.6176780560612182    0.6260426553903511 Se
   0.6162731082756372    0.8835347059438412    0.1171317786753384 Se
   0.6167058255187566    0.6147441292486872    0.3849261706961641 Se
   0.3927042049611824    0.8882811237358603    0.8812312422455902 Se
   0.3645639957443095    0.6344822969778574    0.1316879151617133 Se
   0.1271742719771948    0.3637608256675638    0.6452737257427419 Se
   0.1335749242609766    0.6298293036077816    0.3684577729275752 Se
   0.3701227446692920    0.3648519036164906    0.8678587135042034 Se
   0.8938849021682849    0.1150288308366010    0.6115817641300354 Se
   0.1256645688119790    0.3787893385987192    0.1204769129839533 Se
   0.1132091157717046    0.1118387970616082    0.3730916659530669 Se
   0.8874366232385844    0.3900243909042971    0.8862548282976607 Se
   0.8601269827518672    0.1251938742736822    0.1330919194969730 Se
   0.6217544611861845    0.8718470527149870    0.6276078502806792 Se
   0.6349536121960259    0.1327471439849663    0.3677527342723657 Se
   0.8558706127126448    0.8626471256346726    0.8689914842340661 Se
   0.8849580827249665    0.6150311883598053    0.1121706090455587 Se
   0.1254969336933812    0.8812998250900813    0.6096725107574382 Se
   0.1150454464099366    0.6205554920171917    0.8844046426339627 Se
   0.8823244336773021    0.8809885649645987    0.3802942012293362 Se
   0.8667992400195694    0.6315677323132903    0.6380658275024931 Se
   0.6332180338841722    0.3686553830021781    0.1331305108033747 Se
   0.6255800354173129    0.6341349369541883    0.8781390679454357 Se
   0.8744354452841571    0.3722129283014630    0.3675332325176111 Se
