Mg7 Sc16 Se32
1.0
  11.1003847944368736    0.0000000000000000    0.0000000000000000
   0.0000000000000000   11.1003847944368736    0.0000000000000000
  -0.0000000000000000   -0.0000000000000000   11.1003847944368736
Mg Sc Se
7 16 32
direct
   0.3729857912364745    0.1481633932697356    0.3690585603663470 Mg
   0.2491172237242884    0.7514671908215684    0.7510568445467846 Mg
   0.5003274762697106    0.4896761564895131    0.0081654347632350 Mg
   0.7644773546359467    0.2492508023341809    0.7491655806891667 Mg
   0.9960634557061446    0.0115293591108693    0.9851025319659675 Mg
   0.7467221700504904    0.7473961497459308    0.2568676987176060 Mg
   0.0000201022555039    0.4999627096011813    0.5001002574158705 Mg
   0.1285681659463963    0.8714709918264436    0.3883399738125495 Sc
   0.3769397057713546    0.1374161275034159    0.8644777281882824 Sc
   0.3664847150639431    0.3643858012338126    0.6172046173793064 Sc
   0.1258337591252569    0.1202609072220990    0.6243726641266000 Sc
   0.1075673557174510    0.3664708108473481    0.8771021371606614 Sc
   0.3831892858801568    0.6099182450867543    0.3663037563436743 Sc
   0.3835413051987633    0.8840654003883909    0.1395423839066763 Sc
   0.1175902669177542    0.6302670669724041    0.1148222634093484 Sc
   0.6294452313131877    0.8734049549880507    0.8806473828448443 Sc
   0.8636436969484501    0.1288155625352356    0.3760401969510828 Sc
   0.8733851404368994    0.3760704121096774    0.1253028076985433 Sc
   0.6255606262507498    0.1284300916729831    0.1237254546839711 Sc
   0.6344332571420448    0.3672987755004540    0.3787726430470560 Sc
   0.8784446040918698    0.6107369168237583    0.8712915252362106 Sc
   0.8676050170065482    0.8804902692646790    0.6328329526861171 Sc
   0.6340424875484102    0.6271735442259236    0.6239682880282734 Sc
   0.3837924225175516    0.1185157059922119    0.1154628659552033 Se
   0.6155566335950857    0.3854803569746079    0.6022529781273323 Se
   0.6228026540845142    0.1156307584867346    0.8838887628728671 Se
   0.3870024389603861    0.3707371914518148    0.3713670398499127 Se
   0.3870926787846529    0.1325984149132933    0.6296452549610608 Se
   0.1376892714817529    0.8556878800926776    0.1264973491674180 Se
   0.1406242376061497    0.1326872013510358    0.8653721899268081 Se
   0.3759546713911358    0.8609810944999742    0.3672628394747367 Se
   0.3828941885013346    0.6171545609407852    0.6171114792914568 Se
   0.6180220137430684    0.9011962166231811    0.1176378563051197 Se
   0.6193421164074646    0.6173610339080996    0.3838044771853015 Se
   0.3726302165592270    0.8983665568128085    0.8912581033609114 Se
   0.3672494830862049    0.6389400194727727    0.1240671441642593 Se
   0.1387901866353004    0.3672228715489280    0.6321684552892111 Se
   0.1328915430400229    0.6317528427851961    0.3677982045083465 Se
   0.3836218736988188    0.3658530076724733    0.8677122072792044 Se
   0.8802203558704390    0.1198299577292740    0.6012463524800371 Se
   0.1162548733860174    0.3882023252883626    0.1193701755428951 Se
   0.1324537926910146    0.1109364928188316    0.3713010653778803 Se
   0.8856753452539938    0.3898907983153132    0.8889341506344610 Se
   0.8757484890177509    0.1369643681272705    0.1194971084407658 Se
   0.6172139376143528    0.8597385122833867    0.6351185388031467 Se
   0.6256538153073204    0.1274049262296737    0.3726432474861525 Se
   0.8624212054087950    0.8727699368447148    0.8853213383389020 Se
   0.8850833346763306    0.6184561223897146    0.1213835480626414 Se
   0.1137704232889733    0.8670725137350278    0.6212144387189470 Se
   0.1168606549293305    0.6069410462193214    0.8752256867188439 Se
   0.8888928841362083    0.8914274134767759    0.3776554258460548 Se
   0.8678114967336218    0.6323835988454801    0.6302315298536363 Se
   0.6317243875681428    0.3611282685278080    0.1245378455012723 Se
   0.6236991393235738    0.6271715610826785    0.8523834683743734 Se
   0.8601931577399925    0.3750113887387710    0.3668295781405663 Se
