Mg7 Sc16 Se32
1.0
  11.1003847944368736    0.0000000000000000    0.0000000000000000
   0.0000000000000000   11.1003847944368736    0.0000000000000000
  -0.0000000000000000   -0.0000000000000000   11.1003847944368736
Mg Sc Se
7 16 32
direct
   0.5079582800760759    0.9940290125307281    0.4974903410088290 Mg
   0.2481208089077947    0.7505139230768769    0.7361013809403222 Mg
   0.4970136161287355    0.4961002500781407    0.0015435131719443 Mg
   0.7496834556801090    0.2541032071364688    0.7409826049116168 Mg
   0.0061100617202427    0.0005054463255472    0.0144417407458409 Mg
   0.7585628773400658    0.7529146279139046    0.2460264532582052 Mg
   0.1515043792428620    0.2990739306033428    0.2326917314387399 Mg
   0.1193062924742351    0.8874784234937783    0.3720672805863655 Sc
   0.3727205441534542    0.1285804885749015    0.8793922150516484 Sc
   0.3929635728493834    0.3734279989675753    0.6357347076678322 Sc
   0.1233757422386683    0.1282134152056449    0.6260786381454094 Sc
   0.1293272420428834    0.3871741077482508    0.8740284471003883 Sc
   0.3781867949752595    0.6254299485612691    0.3677348981029965 Sc
   0.3709489255466853    0.8746720390768293    0.1152224306474582 Sc
   0.1348473552790390    0.6222166158940274    0.1323785868350248 Sc
   0.6277620475407029    0.8733889766256860    0.8810304530652573 Sc
   0.8835013686313544    0.1280965618758640    0.3863709288795842 Sc
   0.8825637041176473    0.3629002067410506    0.1115863287410079 Sc
   0.6248783061508096    0.1248039787574511    0.1251855879176324 Sc
   0.6189951380019425    0.3777750891011085    0.3732802727179329 Sc
   0.8756655791483570    0.6190198162976623    0.8661545827919628 Sc
   0.8895758347888406    0.8860811208867199    0.6225384216045174 Sc
   0.6372177021047796    0.6383453401598059    0.6284730324552213 Sc
   0.3884297597527468    0.1249564266829818    0.1213736832290221 Se
   0.6175020103806250    0.3828491344523028    0.6171604570533282 Se
   0.6201302366207528    0.1216025080878193    0.8771705160912665 Se
   0.3846580068888584    0.3799853155421056    0.3866040206041838 Se
   0.3750394761677557    0.1359543692455353    0.6366159503629922 Se
   0.1103625916674314    0.8684182075993820    0.1285206994301430 Se
   0.1220329349509323    0.1223351117015346    0.8558639899086592 Se
   0.3633942294085274    0.8665452264387320    0.3573127226216755 Se
   0.3829960910029104    0.6079209741229071    0.6354909627302593 Se
   0.6180374278539305    0.8722511690099444    0.1016980516497944 Se
   0.6251820629863144    0.6076953718416207    0.3898664625478486 Se
   0.3769106726776207    0.8745146693271781    0.9025187464158072 Se
   0.3664949069906894    0.6350312842913418    0.1347965435804545 Se
   0.1301140036014721    0.3656987605465686    0.6342899140656999 Se
   0.1284660069738793    0.6238833261669685    0.3770444083673460 Se
   0.3672889425075789    0.3668990903170072    0.8663397339085392 Se
   0.8835450745108995    0.1117020572771304    0.6181758460041908 Se
   0.1243904305958028    0.3742352982877640    0.1256702055081089 Se
   0.1174136457489720    0.1101271444142146    0.4047464228778722 Se
   0.8783193348192584    0.3803402758172984    0.8872796980367236 Se
   0.8649008738633959    0.1227470211270913    0.1265218208288711 Se
   0.6397770118240338    0.8614678732974911    0.6468339594739262 Se
   0.6318788999835923    0.1347183775457507    0.3676959336773768 Se
   0.8656766574166619    0.8787302043410534    0.8782638266446730 Se
   0.8803340269480224    0.6216478945527787    0.1179473501775818 Se
   0.1330761621260903    0.8832169734579038    0.6201244876433576 Se
   0.1351248686677569    0.6122317516495247    0.8862984236685981 Se
   0.8985362559376181    0.8785626058579384    0.3730170866208580 Se
   0.8654916126734997    0.6308843977187829    0.6306113021438000 Se
   0.6359198839505975    0.3695706693068979    0.1321558737957234 Se
   0.6350664272344686    0.6358470663222897    0.8628099062772817 Se
   0.8567894096243531    0.3693195563156865    0.3731183108904389 Se
