Mg7 Sc16 Se32
1.0
  11.1003847944368736    0.0000000000000000    0.0000000000000000
   0.0000000000000000   11.1003847944368736    0.0000000000000000
  -0.0000000000000000   -0.0000000000000000   11.1003847944368736
Mg Sc Se
7 16 32
direct
   0.4989816390309868    0.9973403045894115    0.4985062634574550 Mg
   0.2496235341505793    0.7658721226332733    0.7446403761936909 Mg
   0.5157997785794204    0.4876210800462520    0.9882888089702618 Mg
   0.7315644274205244    0.2370770503428644    0.7471350851434163 Mg
   0.0024693829945192    0.0072106026948251    0.0005550020549338 Mg
   0.7423122158159453    0.7603448357491237    0.2478805366515903 Mg
   0.9964548947026332    0.4825561796034625    0.5116056009307589 Mg
   0.1150514249485795    0.8748115503966418    0.3926553962474126 Sc
   0.3767854452977762    0.1371975737170325    0.8908179999013187 Sc
   0.3756469976389038    0.3748355057680338    0.6253965111912428 Sc
   0.1322436965202598    0.1165116831346560    0.6211601847814601 Sc
   0.1439835928774914    0.3683066571379334    0.8873891198522287 Sc
   0.3659141429316722    0.6177738874800065    0.3565646220001274 Sc
   0.3718928998442059    0.8706296762988182    0.1274844854388974 Sc
   0.1166984078602863    0.6112780685718210    0.1101098954228809 Sc
   0.6274178003646065    0.8732502885079632    0.8515179251030647 Sc
   0.8731469981503293    0.1215550196692313    0.3726846696552244 Sc
   0.8634514998968819    0.3888592035625966    0.1119475209410361 Sc
   0.6234772577831327    0.1265101410263024    0.1257646171290838 Sc
   0.6339095180488075    0.3711907286518064    0.3829978456308119 Sc
   0.8766155333321296    0.6174388898670606    0.8677214606290550 Sc
   0.8653236569946003    0.8915084289011509    0.6345952700230366 Sc
   0.6219041664454482    0.6223731060414609    0.6364984605375087 Sc
   0.3832964134821683    0.1149379469497910    0.1154260276734945 Se
   0.6203488111382793    0.3839437670904057    0.6212289891329739 Se
   0.6202564567986659    0.1081308170490878    0.8667902815576772 Se
   0.3815717648525154    0.3935595895104432    0.3899446176256240 Se
   0.3673929267217017    0.1300723943191615    0.6318801722935874 Se
   0.1314483089106531    0.8679452424592068    0.1292885416260823 Se
   0.1320319305835890    0.1220782051567697    0.8742136256772384 Se
   0.3710504231637536    0.8712119661268735    0.3527288405303581 Se
   0.3787885557633773    0.6070253827972105    0.6081549108200540 Se
   0.6102404403686559    0.8746683776755378    0.1125754723219555 Se
   0.6062573840425414    0.6151577713956687    0.3805091646044981 Se
   0.3753211805224180    0.8887731156868371    0.8819716230980083 Se
   0.3629889103498140    0.6537315409605102    0.1261838713910274 Se
   0.1365755435443408    0.3620417842779661    0.6344284855581299 Se
   0.1290649906375606    0.6357990449754612    0.3678952580263993 Se
   0.3613376247478959    0.3704475747883778    0.8674375895001701 Se
   0.8711899347539633    0.1078044603824732    0.6089823579350713 Se
   0.1153934710968780    0.3834825820780998    0.1239077416371543 Se
   0.1271626624977844    0.1330607426629572    0.3939351677494914 Se
   0.8914506245664506    0.3949024901715648    0.8747937301778452 Se
   0.8734810431993892    0.1356095893751811    0.1345210117322092 Se
   0.6460231592540168    0.8564679764862115    0.6422074464051114 Se
   0.6325660460898405    0.1265192037694999    0.3684446192775420 Se
   0.8660018753739203    0.8718701346718740    0.8682778897652835 Se
   0.8943598103999705    0.6064803616070901    0.1145435394919566 Se
   0.1166285932890120    0.8845339562048363    0.6176152709203235 Se
   0.1073416714479622    0.6172325782137761    0.8892516632733669 Se
   0.8811954721261143    0.8804674341116232    0.3919604616434180 Se
   0.8680339739680326    0.6240189161060001    0.6371032373671767 Se
   0.6242127886498074    0.3638284244546546    0.1484745654569720 Se
   0.6376907597810486    0.6367842794388175    0.8593668026571244 Se
   0.8664813726876605    0.3654561719517268    0.3710557894202055 Se
