Mg7 Sc16 Se32
1.0
  11.1003847944368736    0.0000000000000000    0.0000000000000000
   0.0000000000000000   11.1003847944368736    0.0000000000000000
  -0.0000000000000000   -0.0000000000000000   11.1003847944368736
Mg Sc Se
7 16 32
direct
   0.4961057804737528    0.9834529771896083    0.5041492648386233 Mg
   0.1948432486589722    0.2390877900995903    0.1818827575385574 Mg
   0.5007904425779069    0.4972229786939580    0.0101866120428146 Mg
   0.7431872879188252    0.2427651418158419    0.7331334919509997 Mg
   0.9873215311471548    0.0130944031826613    0.0063308349614630 Mg
   0.7510388791436062    0.7382723963852066    0.2631569242189767 Mg
   0.0010092586638246    0.4995226669623130    0.5007726556171279 Mg
   0.1268723790338744    0.8753151065173769    0.3726695362519464 Sc
   0.3752208611038758    0.1248522977302065    0.8751645297493659 Sc
   0.3742914421688802    0.3751643693322317    0.6274491788367436 Sc
   0.1404747558718246    0.1304222138498689    0.6356029337860328 Sc
   0.1234383873752114    0.3713721896840507    0.8721151836189776 Sc
   0.3803424672409772    0.6188700344499082    0.3657482364398817 Sc
   0.3710110108049196    0.8729876253727922    0.1246971802181912 Sc
   0.1243693645538574    0.6273872679564961    0.1262734116691225 Sc
   0.6300051303389262    0.8678275554740323    0.8636182168834494 Sc
   0.8730200341703832    0.1243200453026174    0.3729114619583174 Sc
   0.8748561696453520    0.3550280863863428    0.1214781255251301 Sc
   0.6107418533781875    0.1214197075453124    0.1269430581059299 Sc
   0.6369609219842540    0.3730209792039459    0.3639945591153314 Sc
   0.8694795978502541    0.6211624929040759    0.8604506501275699 Sc
   0.8765264893147074    0.8752540155404734    0.6293287039544808 Sc
   0.6281612967441426    0.6312881468581919    0.6267153185746041 Sc
   0.3892032335389877    0.1277978493650150    0.1152601155005870 Se
   0.6169436345833356    0.3994984678687410    0.6160290835605798 Se
   0.6147354571933324    0.1116220194559085    0.8828215741768840 Se
   0.3980080325427881    0.3870160107728153    0.3798983142270187 Se
   0.3723829487093306    0.1191377881008947    0.6341029638819444 Se
   0.1328362717365436    0.8670961307646846    0.1328376992103123 Se
   0.1294019054855613    0.1365283066830288    0.8697976175620143 Se
   0.3659885049698949    0.8650569331156858    0.3693674250558659 Se
   0.3803300041324514    0.6167248178453001    0.6125619882287997 Se
   0.6161818756480744    0.8805530514811005    0.1159896168107517 Se
   0.6177866598582126    0.6187151491860210    0.3827083241366537 Se
   0.3808278043579201    0.8781002930737438    0.8919928570315403 Se
   0.3674934803224027    0.6331972820844158    0.1327757351002534 Se
   0.1431023300773994    0.3636985708806658    0.6299283208703382 Se
   0.1374872683877862    0.6396054646416156    0.3697739297270469 Se
   0.3638111786348812    0.3697256982568635    0.8665099657273444 Se
   0.8814155591414113    0.1121536925414255    0.6236717791920898 Se
   0.1163682115967189    0.3812779419961041    0.1054999770082801 Se
   0.1131050206602512    0.1223351945706918    0.3851149605750127 Se
   0.8778980532755715    0.3692643791715454    0.8699871595763820 Se
   0.8695692715890916    0.1213655763651205    0.1173796987214088 Se
   0.6341320717999211    0.8737072272998719    0.6188993081331290 Se
   0.6329606196069398    0.1328887507156398    0.3671805150177379 Se
   0.8623315568132913    0.8692002350400961    0.8663404133311358 Se
   0.8854729087390774    0.6136311466020956    0.1127144122928471 Se
   0.1033084029007332    0.8713268803044063    0.6102349781437701 Se
   0.1124828861434326    0.6245886611037954    0.8907994765347244 Se
   0.8878707122588810    0.8998245220114387    0.3867901578824859 Se
   0.8716294871531943    0.6274153397191925    0.6413044348310064 Se
   0.6321561330566074    0.3689313875413542    0.1317006243908752 Se
   0.6383571732548957    0.6195401169353199    0.8745856841033817 Se
   0.8705639138835310    0.3628293573839828    0.3848178554482541 Se
