Mg7 Sc16 Se32
1.0
  11.1003847944368736    0.0000000000000000    0.0000000000000000
   0.0000000000000000   11.1003847944368736    0.0000000000000000
  -0.0000000000000000   -0.0000000000000000   11.1003847944368736
Mg Sc Se
7 16 32
direct
   0.4973576793158602    0.0034643916279110    0.4994325512729464 Mg
   0.2641363802147189    0.7564196492163202    0.7482077827122746 Mg
   0.1694310678465037    0.2229033247116470    0.2439132045321317 Mg
   0.7499380329866836    0.2498414900904969    0.7500762349308491 Mg
   0.0095104689071646    0.9952211253678664    0.9880715890875911 Mg
   0.7492673932790239    0.7477758537373715    0.2496673786819420 Mg
   0.0058775072467918    0.4970452922293262    0.5120432584336525 Mg
   0.1231080879515436    0.8740627888426502    0.3763755529365118 Sc
   0.3757179238727255    0.1293590989800134    0.8763781457674259 Sc
   0.3698497972353964    0.3845089878599737    0.6131559439227426 Sc
   0.1194921436288438    0.1362591947517054    0.6173076352219342 Sc
   0.1263130119583549    0.3756511847746019    0.8732207475173314 Sc
   0.3687160443858211    0.6334777520788064    0.3742775590081188 Sc
   0.3842166476819907    0.8609645790855430    0.1227323872183830 Sc
   0.1228489919834286    0.6203910573113049    0.1278002727774285 Sc
   0.6356842953079620    0.8707373004115948    0.8762542216382456 Sc
   0.8785148496527477    0.1246471886980799    0.3779006887037993 Sc
   0.8774597979298809    0.3584091416204465    0.1224836672860538 Sc
   0.6318095600500133    0.1335143408855510    0.1210621860896738 Sc
   0.6259954179275863    0.3761868278298166    0.3796654258660626 Sc
   0.8822945527874881    0.6292582907788028    0.8667722562392145 Sc
   0.8840084626397899    0.8883348332790150    0.6275423274630754 Sc
   0.6302671106358073    0.6283366044189398    0.6231345176444687 Sc
   0.3890426210452451    0.1103108576621626    0.1139161302639476 Se
   0.6148254414597929    0.3804996354003846    0.6173565536474784 Se
   0.6079299243289515    0.1113375173815960    0.8782872266033157 Se
   0.3777166579998040    0.3710020772815329    0.3834999588979618 Se
   0.3671801636429332    0.1330349113946699    0.6328799823947245 Se
   0.1366978569382587    0.8635406106236752    0.1324331722658661 Se
   0.1328738765341400    0.1379876849843927    0.8797425593854133 Se
   0.3685635137994264    0.8672555862531401    0.3664889222600089 Se
   0.3796541116668292    0.6177104761507115    0.6077713057618712 Se
   0.6136785448669122    0.8934357309324932    0.1277209718441565 Se
   0.6187445219915954    0.6158745858422914    0.3829202343155892 Se
   0.3883977799891513    0.8845969286253090    0.8935869633232510 Se
   0.3668287242738602    0.6336003106785257    0.1320316378831227 Se
   0.1327832192926383    0.3665473482563492    0.6323829538927089 Se
   0.1213034333143555    0.6361695601660846    0.3653287011354409 Se
   0.3680412704821486    0.3697454171949762    0.8645641672516983 Se
   0.8933318199038528    0.1186613216805213    0.6254066694204503 Se
   0.1169405908525260    0.3830214354884697    0.1171876724522178 Se
   0.1149275490837849    0.1107839165284292    0.3829111151474696 Se
   0.8827957782187599    0.3816273989382131    0.8812969884848140 Se
   0.8798540054253988    0.1414383041629108    0.1402223493707415 Se
   0.6358061147827185    0.8643010561850131    0.6267523353317114 Se
   0.6316731366001537    0.1299614431765778    0.3517326670934940 Se
   0.8579837935363882    0.8757865709569309    0.8757697252180028 Se
   0.8818813046497137    0.6211457338425690    0.1177140060893746 Se
   0.1129406722377793    0.8857085167533409    0.6193943308790827 Se
   0.1170310658616938    0.6169742256420198    0.8829060781270291 Se
   0.8897281406310389    0.8820909236777789    0.3884566738108496 Se
   0.8710613971315146    0.6279464076152167    0.6302849096844416 Se
   0.6324550247095085    0.3503371970476228    0.1291328120679036 Se
   0.6244133585969808    0.6244913644461474    0.8660765804039593 Se
   0.8723197080165939    0.3712106975642782    0.3626607273655707 Se
