Mg7 Sc16 Se32
1.0
  11.1003847944368736    0.0000000000000000    0.0000000000000000
   0.0000000000000000   11.1003847944368736    0.0000000000000000
  -0.0000000000000000   -0.0000000000000000   11.1003847944368736
Mg Sc Se
7 16 32
direct
   0.5042348704473464    0.0018794506099804    0.5098180004883233 Mg
   0.2488504467370929    0.7468212541981643    0.7512321493154854 Mg
   0.5105859036673269    0.4986253141839715    0.0008408566689371 Mg
   0.7438825826522210    0.2535074355708691    0.7488393491686951 Mg
   0.0089952604896456    0.0030551189207351    0.0039139677256455 Mg
   0.7434286384825717    0.7537680346429844    0.2446369518120724 Mg
   0.9999992619954265    0.4992429663614262    0.4989832681965169 Mg
   0.1242785542199226    0.8766728413101494    0.3701053726219881 Sc
   0.3751090808081813    0.1195183391956151    0.8707374255391215 Sc
   0.3754432402206522    0.3740759300246616    0.6244243492916628 Sc
   0.1243822162549814    0.1253250285715760    0.6238264222602602 Sc
   0.1206834362403919    0.3663551452478777    0.8725136959308154 Sc
   0.3725937051124363    0.6314053763805065    0.3677634189257598 Sc
   0.3736549594520888    0.8782086861486975    0.1178956445360591 Sc
   0.1241764142024276    0.6241739413619573    0.1237055789066704 Sc
   0.6245355041112015    0.8745376241532397    0.8753850392998609 Sc
   0.8749036608974006    0.1255441621893466    0.3765512011466061 Sc
   0.8713559662148720    0.3756569825977253    0.1287681759765600 Sc
   0.6159763717805837    0.1267151218873550    0.1250190553155548 Sc
   0.6239110137379291    0.3755724082986077    0.3748137603923940 Sc
   0.8786968302806665    0.6282737233033270    0.8687451857793466 Sc
   0.8770438812333627    0.8770240091310577    0.6260292505850351 Sc
   0.6233335153588228    0.6235627669175342    0.6224877329422704 Sc
   0.3741731091680735    0.1176913022059784    0.1135323645657663 Se
   0.6154567716401834    0.3858287927523342    0.6142018996532338 Se
   0.6136906697256606    0.1145908647462099    0.8816830078234239 Se
   0.3809658753893198    0.3847131567101540    0.3801604167918398 Se
   0.3654261752313865    0.1296487715071416    0.6316158470315196 Se
   0.1224158405220900    0.8680361381267098    0.1327923065747786 Se
   0.1327652291888441    0.1335787832758828    0.8691919019924641 Se
   0.3699967554167339    0.8646299877992875    0.3583335878222558 Se
   0.3831616150220178    0.6098696974211122    0.6171891765525938 Se
   0.6113812161175498    0.8798430425022473    0.1099413615890505 Se
   0.6138478532657072    0.6154371951988934    0.3818781027383264 Se
   0.3852206729413436    0.8828171610037679    0.8858195231141762 Se
   0.3603616912404258    0.6277558433178316    0.1357489387655082 Se
   0.1327293339579748    0.3661777709408938    0.6333182299177433 Se
   0.1270290484391892    0.6380371085723316    0.3707459383819400 Se
   0.3629412945425107    0.3637831746614714    0.8686317438651127 Se
   0.8822852922569604    0.1200829416309164    0.6176988539948902 Se
   0.1202949674322998    0.3829627022867156    0.1188075336396664 Se
   0.1180873141505544    0.1156740983947310    0.3823535696101127 Se
   0.8849914346000781    0.3823690504440660    0.8816274016061235 Se
   0.8656486285111084    0.1356080559776364    0.1329886219232900 Se
   0.6350177963779094    0.8635142688330164    0.6327860360665331 Se
   0.6300889794692081    0.1356528228186557    0.3686782630737980 Se
   0.8673611309489048    0.8674147304487442    0.8672202519104040 Se
   0.8872128185585718    0.6133168285790082    0.1105952692580816 Se
   0.1267415104138699    0.8876602975567699    0.6190810974369964 Se
   0.1139557972555621    0.6167817868625515    0.8822952058504991 Se
   0.8850540228351267    0.8771848424382862    0.3828367871093198 Se
   0.8633446356597569    0.6379120152994392    0.6320974032634931 Se
   0.6290205158337641    0.3642892095958916    0.1292791549341991 Se
   0.6311995619400828    0.6350324601370835    0.8693260110384960 Se
   0.8715006022060945    0.3718292426444577    0.3645545435603115 Se
