Mg7 Sc16 Se32
1.0
  11.1003847944368736    0.0000000000000000    0.0000000000000000
   0.0000000000000000   11.1003847944368736    0.0000000000000000
  -0.0000000000000000   -0.0000000000000000   11.1003847944368736
Mg Sc Se
7 16 32
direct
   0.4996854431149859    0.9904454285913280    0.5052724998478541 Mg
   0.2512518407304619    0.7453427281564813    0.7486911762462638 Mg
   0.4972061242774090    0.4988229376464824    0.0018477405384374 Mg
   0.7471958325612726    0.2489631928382017    0.7574427043878134 Mg
   0.0005209902874744    0.9982480446909583    0.0059949042133350 Mg
   0.7477000386679989    0.7463900265752365    0.2540652316928034 Mg
   0.9951454143384093    0.5038605637759892    0.5007985269041697 Mg
   0.1288042188348916    0.8769506023028337    0.3721305381452422 Sc
   0.3742477372431139    0.1230305656623505    0.8733870024499610 Sc
   0.3769379798970195    0.3760439654458866    0.6279706899013848 Sc
   0.1272787578542275    0.1170301327122777    0.6312676747684176 Sc
   0.1272820297128721    0.3745314541316021    0.8730777086616661 Sc
   0.3678134816580556    0.6214795772106364    0.3699485611076029 Sc
   0.3747079650509673    0.8704916734440677    0.1269488228701887 Sc
   0.1264236857999168    0.6137793561343484    0.1219597446682238 Sc
   0.6179065151903502    0.8801747976038158    0.8747861246584703 Sc
   0.8747898219045958    0.1248783272176404    0.3745621405957888 Sc
   0.8715828363368865    0.3789016261127756    0.1294884824313319 Sc
   0.6201804513294255    0.1211474947393266    0.1286564670412084 Sc
   0.6248737443125817    0.3697480397675084    0.3780903843839767 Sc
   0.8638858343358030    0.6299876254128896    0.8746281256223231 Sc
   0.8741887848019908    0.8734036171846443    0.6239187956743212 Sc
   0.6199513915095156    0.6304254294679595    0.6260199764935263 Sc
   0.3860972612416429    0.1215171168336239    0.1188199767462587 Se
   0.6254646783604583    0.3833824648514685    0.6058242036224455 Se
   0.6107424033105401    0.1196120716368854    0.8936546757502666 Se
   0.3841379284117294    0.3808044801583197    0.3807388059203756 Se
   0.3597538470869956    0.1311433456455676    0.6313688344548617 Se
   0.1386025707123688    0.8691350909896309    0.1342897200456371 Se
   0.1345017099258984    0.1313785124817232    0.8677221196395770 Se
   0.3660786230239357    0.8627754364548524    0.3673018240139617 Se
   0.3842439264430933    0.6103384263851536    0.6187491819941373 Se
   0.6136875165497665    0.8867625732562728    0.1070944129836186 Se
   0.6173863003127787    0.6139046432133404    0.3842853391301454 Se
   0.3849508428563611    0.8929171393868339    0.8793787090809587 Se
   0.3758301508012106    0.6315030841103196    0.1267748290594954 Se
   0.1327004738772866    0.3605881697225392    0.6327309384220299 Se
   0.1332669565562465    0.6289133462443822    0.3720747745860269 Se
   0.3628400817119248    0.3688595106076774    0.8699657621009610 Se
   0.8829713874559948    0.1188616720469120    0.6160027276218422 Se
   0.1163119981114167    0.3828371463761260    0.1225440351328260 Se
   0.1140285132824400    0.1229816618724143    0.3819258014670228 Se
   0.8812319913329161    0.3833525367925019    0.8865405958746002 Se
   0.8773879872471961    0.1314506730254927    0.1367399265711530 Se
   0.6356310874171539    0.8645946783647370    0.6234056912743033 Se
   0.6318656189457109    0.1377626427595665    0.3654144469042211 Se
   0.8733322132838359    0.8578806882677265    0.8605310628782564 Se
   0.8824332198615151    0.6047188209435365    0.1120774808445259 Se
   0.1087847425394556    0.8743263482015836    0.6138643086030421 Se
   0.1172296341402197    0.6142298407132324    0.8845536645935070 Se
   0.8842635575991750    0.8785250251743827    0.3863498579102310 Se
   0.8671600849035909    0.6328948027225569    0.6329974268849790 Se
   0.6325959360707956    0.3667568260532412    0.1314804982652217 Se
   0.6331381123705393    0.6322821334474183    0.8661275764480594 Se
   0.8704750546624171    0.3729789070755880    0.3623509520450579 Se
