Mg7 Sc16 Se32
1.0
  11.1003847944368736    0.0000000000000000    0.0000000000000000
   0.0000000000000000   11.1003847944368736    0.0000000000000000
  -0.0000000000000000   -0.0000000000000000   11.1003847944368736
Mg Sc Se
7 16 32
direct
   0.3188322819686490    0.1864409915480278    0.3304090516442910 Mg
   0.2480083098006399    0.7529277529179222    0.7500855038440708 Mg
   0.5002148607642980    0.5001487809243657    0.0006024606464068 Mg
   0.7486769760751505    0.2492513266304338    0.7457748835040940 Mg
   0.0001350988621018    0.0003760283585379    0.9998185708354409 Mg
   0.7535841778056881    0.7489829712876681    0.2499961749191745 Mg
   0.9971818316710112    0.5002546573918931    0.4982726057041412 Mg
   0.1227790464790055    0.8747595944371663    0.3736058413527281 Sc
   0.3748402418536396    0.1258462974176263    0.8751634160567923 Sc
   0.3747789289768755    0.3755237025313781    0.6252076553306033 Sc
   0.1258832365659661    0.1261322658793703    0.6221580507337977 Sc
   0.1248179196512674    0.3725555709665975    0.8780937605214851 Sc
   0.3769170229441954    0.6248571447821810    0.3752886410427142 Sc
   0.3753171635585317    0.8747025384479195    0.1246967422166176 Sc
   0.1246927146687869    0.6248188591477364    0.1217965025736853 Sc
   0.6246921661062900    0.8742064740569629    0.8727465742066184 Sc
   0.8749645448789426    0.1236935864773930    0.3759498498371581 Sc
   0.8766210815253019    0.3745498190699440    0.1290660877778856 Sc
   0.6269699993123597    0.1264745724055343    0.1283730907681090 Sc
   0.6247653383133576    0.3749244077125294    0.3751188566195547 Sc
   0.8749120021474222    0.6246434932464558    0.8747119039919535 Sc
   0.8760252647621235    0.8788903936779930    0.6238669410144846 Sc
   0.6243343259349521    0.6258011063660568    0.6238778371948611 Sc
   0.3860234296319583    0.1194018871841383    0.1165989053230269 Se
   0.6156113040355895    0.3823354514417798    0.6165938210636154 Se
   0.6154224182358300    0.1175400081399399    0.8796044591440730 Se
   0.3833873478299553    0.3823867106168790    0.3826967818394399 Se
   0.3676016594633550    0.1334952499571010    0.6327185006734850 Se
   0.1314341182717212    0.8666859040378582    0.1333833275957624 Se
   0.1325730243522769    0.1326148009455308    0.8698123476317420 Se
   0.3670529947121394    0.8667911161020349    0.3670976986685636 Se
   0.3838078967220866    0.6164760337610983    0.6156655468460366 Se
   0.6169046311993138    0.8831184297860913    0.1172516146258259 Se
   0.6170505588910313    0.6159191089993907    0.3814558460198569 Se
   0.3828808889091099    0.8828870576784164    0.8828974364981796 Se
   0.3676390661380944    0.6324606124355227    0.1327195216761858 Se
   0.1329703613798225    0.3670872234074479    0.6329045111080995 Se
   0.1338282030532703    0.6333804363421471    0.3676775806910763 Se
   0.3707078632096681    0.3661035756659066    0.8665542403961510 Se
   0.8828101434319812    0.1172558893743913    0.6170990606418479 Se
   0.1174131450195623    0.3829497599132996    0.1169335013587306 Se
   0.1196639814752178    0.1153573964505588    0.3827080041122506 Se
   0.8823783021775945    0.3831755805122193    0.8818968808338092 Se
   0.8665441389929234    0.1328671745469913    0.1335738373566338 Se
   0.6339650876696096    0.8652392607292543    0.6340396149837196 Se
   0.6329758065530573    0.1313018454015064    0.3664515107091695 Se
   0.8637326226768235    0.8673119688991496    0.8669496168586435 Se
   0.8834443640745596    0.6174248712438691    0.1195021706175555 Se
   0.1185157264044053    0.8833275153309130    0.6173154738100542 Se
   0.1169833223586118    0.6154503507829883    0.8831401882576542 Se
   0.8829265201541481    0.8818312877748306    0.3798900211780323 Se
   0.8660908474291776    0.6302670928427559    0.6314202454102015 Se
   0.6345017668147015    0.3658889805652294    0.1323800466717779 Se
   0.6298199111242624    0.6346466205163266    0.8644086982585991 Se
   0.8666807251641387    0.3693188233048166    0.3681384336933219 Se
