Mg7 Sc16 Se32
1.0
  11.1003847944368736    0.0000000000000000    0.0000000000000000
   0.0000000000000000   11.1003847944368736    0.0000000000000000
  -0.0000000000000000   -0.0000000000000000   11.1003847944368736
Mg Sc Se
7 16 32
direct
   0.5120880009881863    0.9831225943718255    0.4926853493724143 Mg
   0.2141352224931425    0.5727712218290004    0.5432950018834402 Mg
   0.4964371533778927    0.5105052244429555    0.0035856686632793 Mg
   0.7474655316614239    0.2512053432556582    0.7469206557481772 Mg
   0.0146624929343667    0.0116161509371553    0.0106479922410165 Mg
   0.7472489178962538    0.7408943625105131    0.2654588804630497 Mg
   0.0007696736748461    0.5028624582163376    0.4990537077907624 Mg
   0.1200024162939586    0.8686716390525024    0.3739158800930630 Sc
   0.3828810651990126    0.1265908330380215    0.8647986541101835 Sc
   0.3763313860651037    0.3738373874883971    0.6240251572868258 Sc
   0.1305215282110531    0.1347800432900786    0.6347606843546645 Sc
   0.1115251920907004    0.3832640879262532    0.8667375622263889 Sc
   0.3754123010616031    0.6248031724479288    0.3743212409584594 Sc
   0.3662491663105393    0.8653993157752353    0.1067106344181584 Sc
   0.1450569988273442    0.6209305120051165    0.1139924910118037 Sc
   0.6210598125189549    0.8865964247410811    0.8774107005941154 Sc
   0.8751204435926532    0.1256341704442190    0.3749469909182297 Sc
   0.8815466570213641    0.3828936689165099    0.1292931109620929 Sc
   0.6192639748836436    0.1234406240824939    0.1172308644132683 Sc
   0.6157524516634092    0.3565309317993458    0.3733926267362614 Sc
   0.8773595230372966    0.6262219250867701    0.8757617243014850 Sc
   0.8748487650847224    0.8748261053859890    0.6256389163174483 Sc
   0.6052046128231288    0.6335698483289770    0.6184029695483912 Sc
   0.3838100449833244    0.1094075999864158    0.1348873984083804 Se
   0.6199181985505724    0.3858718685756711    0.6123585678559154 Se
   0.6235176424978954    0.1147247987286525    0.8771938828201938 Se
   0.3851459222827116    0.3772914717466322    0.3792980552092963 Se
   0.3742291721897630    0.1160689466062438    0.6464137718176379 Se
   0.1328283476453453    0.8671370907597652    0.1328863807725068 Se
   0.1213421586760764    0.1316097915178633    0.8752866441559445 Se
   0.3775802812515098    0.8862798825137312    0.3576295439484660 Se
   0.3897135744074866    0.6117081537108338    0.6221920985842684 Se
   0.6261171985693624    0.8838874799958437    0.1054652289591665 Se
   0.6192761325991429    0.6124381603024758    0.3767572786955058 Se
   0.3669267668493854    0.8894988824703619    0.8867442012395637 Se
   0.3851773615210347    0.6265271867510468    0.1369503733141174 Se
   0.1320161707032202    0.3790699083578705    0.6273766352391731 Se
   0.1372568105356503    0.6385097962084312    0.3810822738712728 Se
   0.3660949688391851    0.3631748103250533    0.8773550948015943 Se
   0.8810991890410962    0.1139426690399895    0.6242320899640860 Se
   0.1231351116183228    0.3887196354960943    0.1112074461219240 Se
   0.1255067945289717    0.1321051970802699    0.3771655594479529 Se
   0.8819439919447998    0.3892764508647251    0.8649701971376609 Se
   0.8667853852436191    0.1219207026625184    0.1309679767866467 Se
   0.6346337100827036    0.8690792897799444    0.6322746793914782 Se
   0.6310772198070961    0.1286628127328776    0.3646596338805553 Se
   0.8786424908004895    0.8568414657081923    0.8699402030692280 Se
   0.8899447944752585    0.6108474579651786    0.1225537692698805 Se
   0.1147783355463238    0.8837517605321512    0.6163365511362358 Se
   0.1165667803995858    0.6170040746046115    0.8821694077932674 Se
   0.8846874639110029    0.8682181294233983    0.3874966251795882 Se
   0.8681632923191874    0.6316062189615687    0.6367962054615943 Se
   0.6188314788186139    0.3776412393139571    0.1236157873656173 Se
   0.6480618373464150    0.6387819605216163    0.8768339432397907 Se
   0.8657485037651108    0.3647834603073778    0.3673747067873368 Se
