Mg7 Sc16 Se32
1.0
  11.1003847944368736    0.0000000000000000    0.0000000000000000
   0.0000000000000000   11.1003847944368736    0.0000000000000000
  -0.0000000000000000   -0.0000000000000000   11.1003847944368736
Mg Sc Se
7 16 32
direct
   0.3739432025970044    0.1111880174835838    0.3927444733213468 Mg
   0.2401852960471128    0.7442084301610591    0.7550290235949229 Mg
   0.5049666330634166    0.4993198179351575    0.9944539169370862 Mg
   0.7453579279890457    0.2479216866510806    0.7508580201865487 Mg
   0.9945389034284209    0.0087286567405809    0.0066095795551497 Mg
   0.7385202527238760    0.7526219261359398    0.2515738556405834 Mg
   0.0002474056183143    0.5101229000512911    0.5039758713933150 Mg
   0.1251856278152189    0.8754572878739315    0.3745507758022812 Sc
   0.3739774007667313    0.1232750734137549    0.8743657864579086 Sc
   0.3753398268683064    0.3713513680940504    0.6250294624157500 Sc
   0.1289850558007936    0.1326966580778576    0.6338400369587919 Sc
   0.1235966417250301    0.3746775033174555    0.8739232005227079 Sc
   0.3747975518275814    0.6246823706159056    0.3755099527871229 Sc
   0.3749458930204115    0.8750646305797672    0.1249361500218423 Sc
   0.1251405062768713    0.6376866047835266    0.1269281906412592 Sc
   0.6267001684858458    0.8831943036594141    0.8719040253208542 Sc
   0.8825023419736084    0.1259231567710117    0.3818639012169673 Sc
   0.8682446161523256    0.3840363416724002    0.1247628231772505 Sc
   0.6250395067593091    0.1174071791531034    0.1242208724305291 Sc
   0.6321886576103004    0.3718678960613286    0.3743707987133522 Sc
   0.8738583978974479    0.6247465329734768    0.8760738927804659 Sc
   0.8749669890928545    0.8750398714840752    0.6250133476358221 Sc
   0.6331143841367920    0.6284906497580522    0.6194077347056395 Sc
   0.3817525999810801    0.1170288231285816    0.1151045692646720 Se
   0.6181469198761911    0.3812478751585309    0.6172945481340411 Se
   0.6079350068781070    0.1106626750618603    0.8868821880045701 Se
   0.3828637308012008    0.3831288681012687    0.3827050168929363 Se
   0.3724543907516301    0.1294105722204340    0.6259942088858832 Se
   0.1322966111670871    0.8611776588645206    0.1282256379504668 Se
   0.1438675896303946    0.1268937969254132    0.8611541738384242 Se
   0.3661014098679923    0.8706473105672951    0.3629327549592772 Se
   0.3858469169766119    0.6138164149700693    0.6147860579200755 Se
   0.6265542227316997    0.8886383446935154    0.1214039685691631 Se
   0.6169004439496050    0.6169345449616921    0.3831461778494603 Se
   0.3833207194080571    0.8816453265829854    0.8824147404524717 Se
   0.3729772931694446    0.6371924648295555    0.1335150214682654 Se
   0.1328454405944586    0.3651003589384039    0.6341879511056094 Se
   0.1450801080924202    0.6350620259660095    0.3642281420325963 Se
   0.3801031919526657    0.3641732911366374    0.8651658698165945 Se
   0.8837987532258048    0.1093074564714651    0.6109149915109421 Se
   0.1169298473921717    0.3830401110898464    0.1172256596867675 Se
   0.1172968879143917    0.1204693666398560    0.3701325350039572 Se
   0.8856074578573778    0.3896225910884184    0.8845713551588016 Se
   0.8688431681003387    0.1331963281131768    0.1345355840842103 Se
   0.6361784420224420    0.8672284358518921    0.6333608153895293 Se
   0.6344161063081692    0.1335721185410171    0.3707094902185372 Se
   0.8708321666122861    0.8748936215392223    0.8618871769411059 Se
   0.8814556231837647    0.6182061585242749    0.1081064688705657 Se
   0.1112575662831833    0.8817439866254865    0.6151457520071060 Se
   0.1261290870110877    0.6173689773516990    0.8825148103207511 Se
   0.8777360347775738    0.8903664572924020    0.3831532273122116 Se
   0.8575203559414873    0.6383042029796243    0.6343227378280040 Se
   0.6303511396130160    0.3773287815303563    0.1363236285704888 Se
   0.6332655071935323    0.6320947614732126    0.8660437725044721 Se
   0.8583654742738261    0.3587628267259213    0.3638963426905890 Se
