Mg7 Sc16 Se32
1.0
  11.1003847944368736    0.0000000000000000    0.0000000000000000
   0.0000000000000000   11.1003847944368736    0.0000000000000000
  -0.0000000000000000   -0.0000000000000000   11.1003847944368736
Mg Sc Se
7 16 32
direct
   0.5016503876400439    0.9988825483288232    0.4977072199957905 Mg
   0.2498306455270818    0.7496798319863197    0.7500362288537936 Mg
   0.4995318061040573    0.5006163180838687    0.0002125374362635 Mg
   0.7498417269379083    0.2504670736217224    0.7486685441299107 Mg
   0.9991206523501522    0.0025557174580518    0.9970585372622467 Mg
   0.7504586163332144    0.7524458368363210    0.2491085916117033 Mg
   0.1838892413677005    0.2634393467491564    0.1949995710506283 Mg
   0.1249389323689596    0.8748746665431004    0.3750824276655969 Sc
   0.3722005934253256    0.1242582804325523    0.8730294394936383 Sc
   0.3730379628409594    0.3776217802212586    0.6227838919299714 Sc
   0.1260829508420037    0.1252940174908722    0.6256807803804462 Sc
   0.1239561499668069    0.3742411217778890    0.8743301160886545 Sc
   0.3754156497736003    0.6245873127487404    0.3750597041473759 Sc
   0.3741303183267543    0.8745920065261054    0.1247306792781621 Sc
   0.1290669389641503    0.6245462811773060    0.1264015492836188 Sc
   0.6266912284617272    0.8754208111047653    0.8742679374334782 Sc
   0.8734852421818030    0.1273699557411225    0.3748952282597727 Sc
   0.8722200716198478    0.3747709203992812    0.1281545025456046 Sc
   0.6273025026287395    0.1248353332148177    0.1271909641990176 Sc
   0.6252351957204132    0.3752614735021487    0.3757709794524375 Sc
   0.8763736690214735    0.6254008775466838    0.8741337357661475 Sc
   0.8750067661191390    0.8753305419658142    0.6250154610891880 Sc
   0.6256873181641565    0.6229157022997515    0.6263049342970817 Sc
   0.3827736389099500    0.1159913444428243    0.1204485008752915 Se
   0.6169625494628999    0.3838594060017533    0.6180299075380543 Se
   0.6155875545730426    0.1171962075799819    0.8824828270496428 Se
   0.3827595717839196    0.3828976003516968    0.3827560324691084 Se
   0.3671138525554129    0.1326209011573930    0.6326038592806725 Se
   0.1316643600121878    0.8675541963163751    0.1327761751441094 Se
   0.1328671132207611    0.1328790544876501    0.8671289220848903 Se
   0.3694959154850397    0.8687159113186130    0.3680258381483561 Se
   0.3825649683438939    0.6175930138621107    0.6180228083045588 Se
   0.6166808724573127    0.8810985523824149    0.1149123947699768 Se
   0.6168886708017455    0.6176763849020255    0.3833336241246376 Se
   0.3844044994913776    0.8804171522836177    0.8812967801716716 Se
   0.3672242312138054    0.6338921141458830    0.1333404677407291 Se
   0.1317823478029008    0.3680122386047386    0.6321909616797931 Se
   0.1304526456923759    0.6304746424556206    0.3659090249284489 Se
   0.3671160123627980    0.3671271824403468    0.8670706827977813 Se
   0.8829522267115064    0.1171245341676790    0.6170960620851760 Se
   0.1163949702349046    0.3807160378028900    0.1185128804267424 Se
   0.1152406456564639    0.1152760882290311    0.3860156608030103 Se
   0.8834132712418482    0.3830603645265059    0.8829491773346969 Se
   0.8679916271476364    0.1305643844206069    0.1307604207437432 Se
   0.6346005586511118    0.8662489450423082    0.6294428991577913 Se
   0.6335865423900291    0.1323909890916906    0.3637382135957378 Se
   0.8694674898226377    0.8699659136115405    0.8668681158546246 Se
   0.8804527376477234    0.6158803105643169    0.1181481564043652 Se
   0.1185159527809963    0.8832800595640726    0.6198836631557484 Se
   0.1184504574461360    0.6163892080294591    0.8821623662971689 Se
   0.8850402449434154    0.8830679063330483    0.3829311491242133 Se
   0.8656388861614263    0.6328694837015325    0.6301823011227297 Se
   0.6308984533761629    0.3636756861611680    0.1333202226203320 Se
   0.6295121767373306    0.6328774845584774    0.8654910694265741 Se
   0.8674528868072570    0.3659622375866238    0.3677816344813180 Se
