Mg7 Sc16 Se32
1.0
  11.1003847944368736    0.0000000000000000    0.0000000000000000
   0.0000000000000000   11.1003847944368736    0.0000000000000000
  -0.0000000000000000   -0.0000000000000000   11.1003847944368736
Mg Sc Se
7 16 32
direct
   0.1680598138307135    0.2707698019575275    0.2305933235864060 Mg
   0.2338423727647108    0.7614086643489020    0.7485327673106416 Mg
   0.4986379392133904    0.5099857308012171    0.9930025432576429 Mg
   0.7358121861531977    0.2354605724462594    0.7376701722381266 Mg
   0.9986508319234839    0.0007055719218884    0.9934280211414613 Mg
   0.7515727362300212    0.7491062010845808    0.2407717489491503 Mg
   0.0035466283211565    0.4965807240959155    0.4854153600927031 Mg
   0.1230694040461890    0.8751237734731597    0.3736982360052957 Sc
   0.3722276675414279    0.1230226683966213    0.8744605697954582 Sc
   0.3705383171963078    0.3644575795350892    0.6316717773268220 Sc
   0.1118176288809542    0.1099799604028047    0.6191494221431817 Sc
   0.1313927311608121    0.3940473052794992    0.8668763998745017 Sc
   0.3887078922506079    0.6282946653740243    0.3585014108712011 Sc
   0.3862324419018029    0.8872891455662746    0.1386380378045927 Sc
   0.1365350090463604    0.6156730599469518    0.1245380219548153 Sc
   0.6221548623229886    0.8773535667757850    0.8680244160363698 Sc
   0.8856962617529073    0.1178692563299608    0.3657883754260717 Sc
   0.8556530621356757    0.3809799338589338    0.1131176741798439 Sc
   0.6280721451366695    0.1169538667335242    0.1265508068470865 Sc
   0.6181193500651150    0.3808941368825737    0.3721897549021176 Sc
   0.8746151652657731    0.6096688925795593    0.8601555676282635 Sc
   0.8749324555249499    0.8664153831809254    0.6331674866321528 Sc
   0.6267711377421086    0.6384048509490863    0.6109344794439175 Sc
   0.3923893581353708    0.1317111344753795    0.1177678925894743 Se
   0.6169588447207183    0.3751004229564783    0.6224914390198391 Se
   0.6000258854586071    0.1307528811135182    0.8914336035440510 Se
   0.3748843789517885    0.3788176356549744    0.3796409494775362 Se
   0.3604483054513996    0.1180412748947528    0.6467841615758948 Se
   0.1293685617220346    0.8674907185936038    0.1552639417921856 Se
   0.1195644819425664    0.1363743996903020    0.8715936477345537 Se
   0.3630490976850275    0.8723399379170791    0.3754708731455887 Se
   0.3832520180055025    0.6090019010249493    0.6152560790262074 Se
   0.6188611535618769    0.8847845330683570    0.1191775307297365 Se
   0.6175530844688694    0.6170301963700828    0.3835795532639996 Se
   0.3833500547314199    0.8820585654347750    0.8848344229931643 Se
   0.3683768187403915    0.6176312662863611    0.1367899890695736 Se
   0.1374130286572159    0.3756950824564469    0.6399611098301640 Se
   0.1450205867122665    0.6255551902051745    0.3803006113300695 Se
   0.3660368013751132    0.3678309939147203    0.8680359082346428 Se
   0.8858366238603508    0.1304144447296963    0.5999956847834591 Se
   0.1142623158796515    0.3937884588209929    0.1004705309042852 Se
   0.1089554243355799    0.1193357012784373    0.3774857182349847 Se
   0.8811214434636385    0.3905424305370732    0.8707139298447405 Se
   0.8707834356770841    0.1289052986042842    0.1245791705241904 Se
   0.6346853909795597    0.8640111967862935    0.6327437652027236 Se
   0.6419478471693674    0.1155726574457155    0.3726427042226476 Se
   0.8709161695450532    0.8674073142226285    0.8635304508823632 Se
   0.8881163394951265    0.6142567087572345    0.1167259700804015 Se
   0.1151667752705734    0.8654368709564209    0.6130556892777985 Se
   0.1114453442216700    0.6273485141604569    0.8772623969588587 Se
   0.8830892431847609    0.8729492581099108    0.3831367340628739 Se
   0.8614176284499303    0.6200613023529908    0.6472315818428049 Se
   0.6296194011446695    0.3603244781024338    0.1290043831741937 Se
   0.6305460687069098    0.6249173516853405    0.8743442860333904 Se
   0.8772704745632582    0.3625245728718469    0.3678849640248313 Se
