Mg7 Sc16 Se32
1.0
  11.1003847944368736    0.0000000000000000    0.0000000000000000
   0.0000000000000000   11.1003847944368736    0.0000000000000000
  -0.0000000000000000   -0.0000000000000000   11.1003847944368736
Mg Sc Se
7 16 32
direct
   0.3720322229862514    0.1073604541505807    0.3959280368282822 Mg
   0.2480888980300269    0.7561685302541885    0.7494047095510995 Mg
   0.4997724000319609    0.4997773677699360    0.0067844042232091 Mg
   0.7485805120252446    0.2516400135835699    0.7510171395413661 Mg
   0.0047716395840811    0.0006908566929580    0.0017077020311948 Mg
   0.7515290131777451    0.7527521543976904    0.2444644127922088 Mg
   0.0005877545702406    0.5016369247041463    0.4992957785114097 Mg
   0.1278385592462148    0.8755296504736787    0.3689090243759468 Sc
   0.3692542681124655    0.1218308621893864    0.8777604364466243 Sc
   0.3755140768033097    0.3757713386958358    0.6213767457080419 Sc
   0.1256167092275164    0.1293712538886725    0.6228130050190193 Sc
   0.1242523378381910    0.3761746904918246    0.8767264567067921 Sc
   0.3750129420662863    0.6254716144062572    0.3746191025013005 Sc
   0.3757516144498721    0.8758543539596683    0.1249450148307666 Sc
   0.1248561295927765    0.6250146759762367    0.1251794432804529 Sc
   0.6252695456617712    0.8711254945289187    0.8701979030508740 Sc
   0.8743654331641378    0.1232392890278928    0.3758603251802549 Sc
   0.8741564946147018    0.3743698964830363    0.1254707590198934 Sc
   0.6270665268439035    0.1221873341801875    0.1264409136725878 Sc
   0.6189953304769802    0.3773788456059454    0.3718352500809924 Sc
   0.8755344124986384    0.6253023777906876    0.8760614806354662 Sc
   0.8817872494132999    0.8733790945672093    0.6228251564494647 Sc
   0.6286200191426162    0.6255345664229187    0.6261806551366255 Sc
   0.3781557902155425    0.1147577436638959    0.1168973849716567 Se
   0.6142185030461335    0.3821786185935246    0.6113475350835784 Se
   0.6162515115646029    0.1160663851646370    0.8867154325875700 Se
   0.3808243730020948    0.3862196137936212    0.3828423388861909 Se
   0.3655646775533437    0.1317234274355155    0.6314553113327633 Se
   0.1347854410605776    0.8675067431761854    0.1303711815347970 Se
   0.1272299322309570    0.1337247463741239    0.8707267868492943 Se
   0.3657776701310881    0.8717464935140191    0.3673392668023490 Se
   0.3825864953369156    0.6172377928916352    0.6172157688591451 Se
   0.6196352194836848    0.8845976845559291    0.1147242384378921 Se
   0.6166506263858264    0.6145309112550843    0.3780213634369621 Se
   0.3896318050557520    0.8807883274775576    0.8838888690209583 Se
   0.3671346657585607    0.6295525559479921    0.1386768210616358 Se
   0.1330369505449225    0.3687363460047088    0.6314239574474043 Se
   0.1357691088537776    0.6318083472829247    0.3660955091298428 Se
   0.3700500153794954    0.3653256982588153    0.8660589656552280 Se
   0.8841571734034925    0.1144581106360271    0.6131247091621814 Se
   0.1151284782112561    0.3821409620632648    0.1127436967416549 Se
   0.1169095255038102    0.1167449185279011    0.3830102358007570 Se
   0.8847247429637130    0.3813060765104587    0.8807732368664325 Se
   0.8650557459048649    0.1337038712899435    0.1346529821128422 Se
   0.6402108234500781    0.8675812192957294    0.6344769047317212 Se
   0.6317412485802285    0.1307154150494224    0.3679839500584173 Se
   0.8670662748640943    0.8672259646734469    0.8671332061226049 Se
   0.8783958625881563    0.6182697242463421    0.1137918504157085 Se
   0.1160619234713864    0.8827332996107846    0.6172690874594052 Se
   0.1178254912550736    0.6221446521194726    0.8850684048265002 Se
   0.8817911179971759    0.8829470845383737    0.3822774864673033 Se
   0.8664313605341565    0.6326692094825391    0.6328486267032558 Se
   0.6263641111503456    0.3645938680486348    0.1343903444808140 Se
   0.6327787231974464    0.6339935395867730    0.8677716977061272 Se
   0.8649131397649448    0.3670680941551487    0.3631154152467447 Se
