Mg7 Sc16 Se32
1.0
  11.1003847944368736    0.0000000000000000    0.0000000000000000
   0.0000000000000000   11.1003847944368736    0.0000000000000000
  -0.0000000000000000   -0.0000000000000000   11.1003847944368736
Mg Sc Se
7 16 32
direct
   0.5010857483287996    0.0140920401716349    0.4822290221066848 Mg
   0.2452716704137835    0.7508536621453047    0.7366480533807437 Mg
   0.1720875704517868    0.2247429227240725    0.2517252193106359 Mg
   0.7494345595979006    0.2510193074483518    0.7509876859135317 Mg
   0.0154105705347975    0.9878622997861845    0.0093631833345311 Mg
   0.7485854391193498    0.7649925546239467    0.2599253845996766 Mg
   0.0008533567161405    0.4967726731806332    0.4985072645825144 Mg
   0.1248326712921831    0.8549517312880628    0.3580730063346674 Sc
   0.3782444670936629    0.1328739462353611    0.8796191098934333 Sc
   0.3830888520727487    0.3538463007984458    0.6255171881584239 Sc
   0.1295810642800790    0.1317386384403651    0.6137285476224558 Sc
   0.1378144722447633    0.3603254198959902    0.8771580571915685 Sc
   0.3779991482098519    0.6271277397834443    0.3743610400711953 Sc
   0.3819623431571667    0.8536607146913510    0.1128942087491659 Sc
   0.1263832289952271    0.6239946159895303    0.1282243236594509 Sc
   0.6262880430256196    0.8959046513814817    0.8816875428562732 Sc
   0.8662896585773660    0.1222436241377960    0.3705450030627314 Sc
   0.8669821984461669    0.3567544358156363    0.1364085675779909 Sc
   0.6121170426948309    0.1110493262673147    0.1065803853060305 Sc
   0.6250212087423094    0.3743975067044319    0.3755154388031808 Sc
   0.8687514221868804    0.6090577958308840    0.8674606557418740 Sc
   0.8780069334525534    0.8859984121795232    0.6269003007742795 Sc
   0.6252809070013612    0.6249449939688224    0.6244688366448288 Sc
   0.3850491127664568    0.1253337610673244    0.1250628508878112 Se
   0.6179442666991486    0.3838020505150537    0.6151331180617824 Se
   0.6229691860301306    0.1182189826395446    0.8833718035602348 Se
   0.3819210847923546    0.3866582734111975    0.3974500960983822 Se
   0.3653958365554869    0.1340696842881000    0.6348062200787842 Se
   0.1407410996706072    0.8626720139370329    0.1297997392647864 Se
   0.1441574848130784    0.1371997460255730    0.8597426389397629 Se
   0.3450528708979730    0.8794638283900346    0.3637093418616670 Se
   0.3797174269745329    0.6384028157460685    0.6094420303857740 Se
   0.6120295579512294    0.8719548849109471    0.1334299776900600 Se
   0.6159615713224190    0.6173256588494204    0.3811131875654413 Se
   0.3781981740022395    0.8798777494014273    0.8854269527546799 Se
   0.3482676138711535    0.6250575462400335    0.1226568989272822 Se
   0.1317110737335268    0.3514808796221378    0.6220083506755835 Se
   0.1211548228901140    0.6190419117094008    0.3794622442898981 Se
   0.3621424891204770    0.3696526843786638    0.8802682687453961 Se
   0.8726264356835290    0.1063323508451496    0.6159513671196379 Se
   0.1196562595514538    0.3941364886072100    0.1102080696778874 Se
   0.1205382647215228    0.1157728440800360    0.3750952472316794 Se
   0.8857441865289397    0.3787128550619897    0.8564319258211248 Se
   0.8696315167269730    0.1324313338614999    0.1388176921793927 Se
   0.6308622949765422    0.8673241411943013    0.6344186859419193 Se
   0.6258577480766288    0.1294885303066995    0.3517585873837294 Se
   0.8701153915863602    0.8576902720769707    0.8601823083975546 Se
   0.8891879173468552    0.5927364965970032    0.1199664291752657 Se
   0.1229050648193755    0.8863167536024851    0.6022965761074845 Se
   0.1019115186810452    0.6077087377509106    0.8720205450429001 Se
   0.8751026306762457    0.8799827014425556    0.3859487554981283 Se
   0.8672636491226891    0.6341588551970159    0.6318789272212533 Se
   0.6362355437170243    0.3582720836471499    0.1125658960823189 Se
   0.6355443959357556    0.6172363567100695    0.8747689556905068 Se
   0.8695948830104129    0.3661447497297296    0.3633477881231063 Se
