Mg7 Sc16 Se32
1.0
  11.1003847944368736    0.0000000000000000    0.0000000000000000
   0.0000000000000000   11.1003847944368736    0.0000000000000000
  -0.0000000000000000   -0.0000000000000000   11.1003847944368736
Mg Sc Se
7 16 32
direct
   0.1952559396780781    0.2421385710052918    0.2717803700073908 Mg
   0.2609552344659166    0.7637367805666808    0.7429901759242632 Mg
   0.5031310116780393    0.4984962452761182    0.0031370380258701 Mg
   0.7355985721327273    0.2382416782400370    0.7425050761755545 Mg
   0.9926701602388709    0.9866295666077894    0.9935925080707436 Mg
   0.7416634975790019    0.7529751879294777    0.2596963130981529 Mg
   0.9907379550990502    0.5128883398800572    0.5118945877053350 Mg
   0.1455059836124087    0.8803495376884026    0.3816740717361701 Sc
   0.3590622350463855    0.1248418754838103    0.8808251814967548 Sc
   0.3760479905235166    0.3752900489274374    0.6245719567854536 Sc
   0.1213877476002704    0.1296909459935043    0.6365751988509317 Sc
   0.1383754358411785    0.3803260918883490    0.8580330662671036 Sc
   0.3874625344651816    0.6261919157977900    0.3696804574439793 Sc
   0.3795998573033731    0.8797600605937839    0.1177458498269036 Sc
   0.1200893606856022    0.6372529042578722    0.1322010831774942 Sc
   0.6248791698708809    0.8750565940648464    0.8751637735291696 Sc
   0.8710630626964772    0.1202792575298801    0.3637489896618351 Sc
   0.8793800863798776    0.3797296276590639    0.1296891685136391 Sc
   0.6242507377891676    0.1229098084586883    0.1250244968578223 Sc
   0.6154995629404467    0.3641986484434783    0.3640968899328630 Sc
   0.8721777752067934    0.6080531169963085    0.8736347289806823 Sc
   0.8810544379995465    0.8865394108066744    0.6359983472284081 Sc
   0.6232582488041655    0.6311166879577170    0.6282145500630641 Sc
   0.3852286899850568    0.1170033200951619    0.1194733942896885 Se
   0.6230481477364055    0.3872585486030353    0.6157771262860559 Se
   0.6226949568432704    0.1152898377273606    0.8938127998111985 Se
   0.3810695104257016    0.3822703145930115    0.3785386169914885 Se
   0.3684245700715261    0.1387642330671736    0.6390337298364537 Se
   0.1357799049792519    0.8710344578256514    0.1292867795151101 Se
   0.1325705333969359    0.1335670614748829    0.8683439151849491 Se
   0.3733939415652590    0.8693618058088503    0.3683796511705519 Se
   0.3875745009321067    0.6005633843391633    0.6321629398493207 Se
   0.6112605726914683    0.8849344431790098    0.1266856827051202 Se
   0.6218851687183958    0.6159376756464986    0.3902884646866904 Se
   0.3817721532415232    0.8822147003087409    0.8833577669918758 Se
   0.3548151011687268    0.6324047494350714    0.1332772820639904 Se
   0.1278252443436799    0.3681221921353726    0.6340486784436297 Se
   0.1339418592936799    0.6331827654408487    0.3676128814341946 Se
   0.3643599677304957    0.3547527962494799    0.8619398009110441 Se
   0.8869119753005161    0.1034990685875623    0.6007155058319366 Se
   0.1156971059288631    0.3813087293307351    0.1130468058418721 Se
   0.1238792954731196    0.1044090013382147    0.3655501828808566 Se
   0.8924601517418576    0.3673043495870496    0.8974090101838967 Se
   0.8575175590627651    0.1365227191314894    0.1152982011746398 Se
   0.6354097382035315    0.8634016552707323    0.6340749030603176 Se
   0.6145909883244368    0.1287124647636807    0.3651978261303361 Se
   0.8651714571157938    0.8775123751682613    0.8851040286767358 Se
   0.8754095663889496    0.6110428697341107    0.1017412082465435 Se
   0.1210009861495173    0.8828737109701076    0.6168798941907253 Se
   0.1276133350690249    0.6153321418529686    0.8833305436579243 Se
   0.8686303224947165    0.8928691209546982    0.3915223217786475 Se
   0.8564754090580201    0.6292307440875543    0.6444711154632288 Se
   0.6320271252943066    0.3655213936943887    0.1323347187440994 Se
   0.6242990293815188    0.6270679048635573    0.8713410896461014 Se
   0.8678683445460701    0.3527971843529848    0.3566270327679859 Se
