Mg7 Sc16 Se32
1.0
  11.1003847944368736    0.0000000000000000    0.0000000000000000
   0.0000000000000000   11.1003847944368736    0.0000000000000000
  -0.0000000000000000   -0.0000000000000000   11.1003847944368736
Mg Sc Se
7 16 32
direct
   0.5022781323003830    0.9906804452567354    0.5007176067721315 Mg
   0.2614333034701150    0.7501841777713315    0.7340124384032595 Mg
   0.1827932071781778    0.2291646944324272    0.2516554206677694 Mg
   0.7598487942021408    0.2438793592374129    0.7550272244533723 Mg
   0.0007614402147753    0.0007087209743207    0.0006269486125484 Mg
   0.7476134829315138    0.7493929438623653    0.2368105282053946 Mg
   0.0038191875673189    0.5008653721135462    0.4997414568530310 Mg
   0.1208723676288734    0.8584988114036245    0.3767489259199324 Sc
   0.3821363613859733    0.1273914459963301    0.8793488246944080 Sc
   0.3714201368007238    0.3906707312360318    0.6167206754282517 Sc
   0.1236604130827809    0.1314661731517644    0.6094316945612628 Sc
   0.1195266761188013    0.3763847999347492    0.8747147071440501 Sc
   0.3686799734037901    0.6248387323296819    0.3848305847861216 Sc
   0.3760102097696587    0.8752749724257580    0.1249030930546059 Sc
   0.1256857533032395    0.6245979462900552    0.1250619772020307 Sc
   0.6253573733934112    0.8740216105097156    0.8736903373523764 Sc
   0.8744023352276226    0.1307413069523881    0.3915232800659844 Sc
   0.8641846639905142    0.3817649671048429    0.1269643175116537 Sc
   0.6291667425470368    0.1432679879296502    0.1280838446427620 Sc
   0.6187245823867902    0.3899015384123506    0.3761165410067513 Sc
   0.8591090996403055    0.6346320635588322    0.8755219146246999 Sc
   0.8754209899070629    0.8750031222284481    0.6232074916375246 Sc
   0.6130163839170931    0.6303981344717060    0.6258782105665399 Sc
   0.3828363280996532    0.1171193253649988    0.1172080101343532 Se
   0.6206541626961357    0.3837762786141158    0.6107929528862454 Se
   0.6150697561191178    0.1212055619768417    0.8795778368559590 Se
   0.3780992522734863    0.3791384512188590    0.3974177198222157 Se
   0.3862397436256307    0.1366011221434835    0.6295697498384372 Se
   0.1330521232186908    0.8732928949324694    0.1274418719857660 Se
   0.1316599067568119    0.1334474322658591    0.8677530385275802 Se
   0.3722561931348006    0.8683348335844194    0.3768581729668345 Se
   0.3826695652239403    0.6169288278895464    0.6174953434616895 Se
   0.6151091651522645    0.8875890566707932    0.1118585026882011 Se
   0.6026576446036407    0.6088870533798322    0.3770154255120717 Se
   0.3680012554231518    0.8942641711216712    0.8768683048103533 Se
   0.3651963080343938    0.6327691691778721    0.1329725878043530 Se
   0.1326341081747454    0.3539561156405540    0.6394621439262207 Se
   0.1328078345566875    0.6460595555807300    0.3598949080263662 Se
   0.3775880890778434    0.3693757865506816    0.8665269195559945 Se
   0.8831735979613040    0.1164570257221505    0.6197773128453148 Se
   0.1167232166424145    0.3853119910590450    0.1141195099207142 Se
   0.1219710758046818    0.1173052945575676    0.3829019005805925 Se
   0.8811487258257888    0.3824255602872850    0.8790928458247118 Se
   0.8772944026983021    0.1313857350574713    0.1260875936340764 Se
   0.6354536770432563    0.8622323042560416    0.6466073121233563 Se
   0.6284906121300065    0.1276196619528074    0.3678627228431469 Se
   0.8519487466358461    0.8731547518101985    0.8608797587205621 Se
   0.8845013348354912    0.6117638727883272    0.1150548294367909 Se
   0.1173734352675884    0.8832529126724219    0.6174033265149137 Se
   0.1245410090491450    0.6248940086313003    0.8763070764292124 Se
   0.8928975990422990    0.8747153495188730    0.3715582287446204 Se
   0.8666914697219442    0.6331895323043724    0.6324645275915390 Se
   0.6366017919447290    0.3653750416112383    0.1378694988386996 Se
   0.6268895747109247    0.6319966940099302    0.8690990819823949 Se
   0.8646998970546781    0.3628807614362528    0.3475279383950098 Se
