Mg7 Sc16 Se32
1.0
  11.1003847944368736    0.0000000000000000    0.0000000000000000
   0.0000000000000000   11.1003847944368736    0.0000000000000000
  -0.0000000000000000   -0.0000000000000000   11.1003847944368736
Mg Sc Se
7 16 32
direct
   0.5001563608699866    0.9996670764091816    0.4987944625426424 Mg
   0.2466612837984546    0.7544170403298750    0.7495483852328642 Mg
   0.5023206870125725    0.5001212295879470    0.0019986788123654 Mg
   0.7491425849714682    0.2509484499172077    0.7495068655558235 Mg
   0.1966396906093160    0.2704561944591646    0.2513048863122883 Mg
   0.7533428756910141    0.7542816475533496    0.2493172084651921 Mg
   0.0006373428370382    0.4975355192192681    0.4974304425014219 Mg
   0.1249600941747591    0.8769215045196360    0.3768725087634022 Sc
   0.3741761447508608    0.1306637756816234    0.8790799571440796 Sc
   0.3740647122054154    0.3757373079986567    0.6259137019386950 Sc
   0.1249680991569465    0.1289152896218774    0.6216277532930081 Sc
   0.1320701822496275    0.3774674616347631    0.8732882953648338 Sc
   0.3727572674733207    0.6274056686960505    0.3763397016372008 Sc
   0.3732285953094551    0.8739192823899093    0.1216535769745722 Sc
   0.1234554422545756    0.6277297076351174    0.1258215476483393 Sc
   0.6234988919864048    0.8753907957600382    0.8775040200405515 Sc
   0.8749029545057833    0.1256109028866385    0.3747268250641062 Sc
   0.8714651893841096    0.3713266218826794    0.1254101720394925 Sc
   0.6240535036037053    0.1252401304180935    0.1245774190702625 Sc
   0.6270238802140178    0.3766329503496601    0.3706995890551582 Sc
   0.8703383341528371    0.6289888422911204    0.8789384438999958 Sc
   0.8740735019348229    0.8754528372106336    0.6247265876483762 Sc
   0.6230445069648265    0.6229266779632819    0.6245984882782056 Sc
   0.3843059159429807    0.1182614339662172    0.1174007795522161 Se
   0.6159299302954431    0.3794476731831095    0.6212437083325811 Se
   0.6131151723601233    0.1187126772192609    0.8865897548627364 Se
   0.3831799020576679    0.3825866858463152    0.3850289650644028 Se
   0.3653522760684708    0.1265260159482564    0.6324674806407397 Se
   0.1360694892787189    0.8681797730471272    0.1319218281872937 Se
   0.1275980046925845    0.1302681401606417    0.8635633361644239 Se
   0.3670816404150231    0.8671290845305435    0.3671055410316677 Se
   0.3828614996996522    0.6167613236707887    0.6152165102207181 Se
   0.6158377413036923    0.8798165587742700    0.1184256687450844 Se
   0.6179372014336819    0.6228030692186713    0.3786166333267003 Se
   0.3794073063751261    0.8841851353060316    0.8806428632731090 Se
   0.3680790829636951    0.6315166475153101    0.1334223835644860 Se
   0.1329308897431205    0.3668012411343788    0.6331351578856089 Se
   0.1325007006246545    0.6307952545028110    0.3673210058401595 Se
   0.3690543564082437    0.3648482607279044    0.8662887841962985 Se
   0.8860533471098028    0.1158713160857917    0.6211045111746921 Se
   0.1161307497027261    0.3825980799325835    0.1178862116438490 Se
   0.1173093776266389    0.1171795266879519    0.3832639316253224 Se
   0.8822223558224500    0.3826627490982870    0.8834563067939725 Se
   0.8645457471815405    0.1305804555417403    0.1323730236933074 Se
   0.6328781483149550    0.8673522704202128    0.6329788540307072 Se
   0.6318051976304631    0.1286199320654529    0.3608700756288416 Se
   0.8682771750589412    0.8666671363877736    0.8683725919821548 Se
   0.8821293246725885    0.6168734301422790    0.1167155479579827 Se
   0.1172674059685291    0.8831469695600532    0.6163627577208006 Se
   0.1180923098995477    0.6188763821378114    0.8853955020378510 Se
   0.8770637685080849    0.8807491248015616    0.3839283985104772 Se
   0.8673843733381718    0.6311622215679007    0.6345262345915230 Se
   0.6333389018521728    0.3665494519516103    0.1333311585238451 Se
   0.6317402601653787    0.6340407726743554    0.8680693848368889 Se
   0.8664551051352508    0.3683507670061485    0.3660678116658309 Se
