Mg7 Sc16 Se32
1.0
  11.1003847944368736    0.0000000000000000    0.0000000000000000
   0.0000000000000000   11.1003847944368736    0.0000000000000000
  -0.0000000000000000   -0.0000000000000000   11.1003847944368736
Mg Sc Se
7 16 32
direct
   0.5020808054345888    0.9940733841358501    0.4965119772418848 Mg
   0.2419913342978883    0.7508978200163589    0.7414838812794077 Mg
   0.4982248997517099    0.5006157634886659    0.9979943301753134 Mg
   0.7435348249634846    0.2528870841998729    0.7617081257821611 Mg
   0.0403317808053988    0.0993328954879923    0.0886527845034752 Mg
   0.7508259785817972    0.7436299745764884    0.2433891225616576 Mg
   0.9961504651653987    0.4993995442331471    0.5041310335224781 Mg
   0.1258211544053339    0.8767105232066160    0.3761729605670354 Sc
   0.3681148720660714    0.1230564132295760    0.8755158246642798 Sc
   0.3748789421859846    0.3718753517296115    0.6170040361792201 Sc
   0.1326588653111786    0.1331651206763422    0.6248530026951992 Sc
   0.1238022489296783    0.3805999413751490    0.8786517060799626 Sc
   0.3730614216576679    0.6328364862507941    0.3800904955339123 Sc
   0.3697731321671859    0.8753457951200849    0.1255875369877412 Sc
   0.1249306196566245    0.6249291624360626    0.1249471586087618 Sc
   0.6248794942456946    0.8719562650296575    0.8751860527460694 Sc
   0.8731090311966976    0.1211909921739390    0.3684143157020466 Sc
   0.8755535234765731    0.3748365605293511    0.1245914151150734 Sc
   0.6305640366692582    0.1267470106747392    0.1215307645951869 Sc
   0.6249933964647409    0.3755824030008943    0.3785748807156995 Sc
   0.8765283499074301    0.6255084567711656    0.8786648343173137 Sc
   0.8737448141200925    0.8733299303148671    0.6229480232586573 Sc
   0.6255670270903466    0.6231899024805306    0.6202529787818322 Sc
   0.3808467193200646    0.1199116155580799    0.1118551019160983 Se
   0.6154363825092948    0.3819431031195389    0.6157041931825025 Se
   0.6215632808463822    0.1220599003378525    0.8779382591071710 Se
   0.3841260379938206    0.3815837392028055    0.3810732055616805 Se
   0.3651029358553381    0.1259942932886975    0.6375541005260980 Se
   0.1354390097046397    0.8638278288725327    0.1304726861665387 Se
   0.1256458269459792    0.1314839557440424    0.8630178541277838 Se
   0.3714611635926727    0.8593995337421372    0.3634448766860054 Se
   0.3820130502162945    0.6194476256799809    0.6183590131843990 Se
   0.6167884849332642    0.8711986472909796    0.1233012733451344 Se
   0.6154045828917426    0.6186598992830999    0.3805929622103651 Se
   0.3832174538283960    0.8822255995950136    0.8829022667144367 Se
   0.3681490375178890    0.6256530686450827    0.1270377557290756 Se
   0.1326914466312891    0.3678146166818168    0.6331255601867545 Se
   0.1307836414719369    0.6357999403411192    0.3627835126943210 Se
   0.3706298936627346    0.3706163209094077    0.8609213330555536 Se
   0.8805027781453356    0.1155643826557051    0.6156847334121683 Se
   0.1176542220129679    0.3813366173205909    0.1277990655923451 Se
   0.1166158632365187    0.1105042893581136    0.3726031663590221 Se
   0.8826076639777027    0.3787849800200323    0.8801746746948541 Se
   0.8683690513516088    0.1370033298027608    0.1286034166375843 Se
   0.6328921651759281    0.8670722480360136    0.6328873524305505 Se
   0.6326888716803063    0.1336800264369828    0.3675098595252126 Se
   0.8675361975492768    0.8674840865316843    0.8669403784328636 Se
   0.8758888251040394    0.6115269439465073    0.1129177248188151 Se
   0.1223895108541730    0.8842544602136860    0.6147438198332222 Se
   0.1176451195641663    0.6168421944873910    0.8826646245746121 Se
   0.8810378155127067    0.8834561515856881    0.3847766746966040 Se
   0.8640288882202931    0.6300820365704481    0.6407686500630816 Se
   0.6302031744505973    0.3742652817499090    0.1265850506022849 Se
   0.6339595595755901    0.6356984885195384    0.8682065781514685 Se
   0.8688625108220407    0.3678368101718745    0.3684499189841970 Se
