Mg7 Sc16 Se32
1.0
  11.1003847944368736    0.0000000000000000    0.0000000000000000
   0.0000000000000000   11.1003847944368736    0.0000000000000000
  -0.0000000000000000   -0.0000000000000000   11.1003847944368736
Mg Sc Se
7 16 32
direct
   0.4249272915907775    0.0785062411141055    0.4435792421966397 Mg
   0.2518367963866187    0.7528685424006254    0.7531148724520770 Mg
   0.4956883138666071    0.4935124037914290    0.9984887083777286 Mg
   0.7511670103704735    0.2500332404515385    0.7551487104214831 Mg
   0.0036482531505308    0.0014671940123696    0.0069498220378849 Mg
   0.7540215449409020    0.7415156478061038    0.2495732521086763 Mg
   0.9982830493948591    0.4980213030913103    0.4931438229100165 Mg
   0.1307140236398981    0.8713788028456025    0.3752171134778819 Sc
   0.3778131662184859    0.1259937830960650    0.8733539556394717 Sc
   0.3804979798702787    0.3757946528246683    0.6238067163282952 Sc
   0.1254368285961547    0.1238636771493886    0.6201097642795190 Sc
   0.1226295817127051    0.3738454303561962    0.8766131506561434 Sc
   0.3785511874501493    0.6264654456095126    0.3756033263031861 Sc
   0.3757364581830547    0.8737010169139972    0.1252987481334897 Sc
   0.1313837096501367    0.6298952666459833    0.1219060941255581 Sc
   0.6233644527774826    0.8768375291346858    0.8799062399435906 Sc
   0.8801432092645388    0.1289087978536431    0.3822306424176128 Sc
   0.8779698271818326    0.3694187856981116    0.1238825920640244 Sc
   0.6264705926402266    0.1327097448959842    0.1278881913679931 Sc
   0.6270027412356557    0.3789908035227442    0.3764723876994813 Sc
   0.8751291602909078    0.6221949910978758    0.8756358346305064 Sc
   0.8743366618367983    0.8750809363399009    0.6253798895354136 Sc
   0.6221920685721547    0.6254412223568249    0.6234013069486918 Sc
   0.3810685330050047    0.1187096282960070    0.1173435779538129 Se
   0.6105719452808371    0.3826934070759040    0.6194205593023178 Se
   0.6144354375920046    0.1090294391833720    0.8880536146211921 Se
   0.3919835874934484    0.3802851433027649    0.3818150707814125 Se
   0.3574174290828940    0.1349869086380100    0.6311800655398992 Se
   0.1355393144199782    0.8745907699320637    0.1285386627610597 Se
   0.1272966862490331    0.1321985441368415    0.8715200774360233 Se
   0.3660920720329132    0.8679868380965329    0.3690082799493091 Se
   0.3858180520215807    0.6149312304221557    0.6115708898436253 Se
   0.6142936023601185    0.8781053368550474    0.1231046086169428 Se
   0.6213756925615433    0.6165920320477444    0.3852159747503592 Se
   0.3809652001264510    0.8817251697441065    0.8930664406865185 Se
   0.3755447134543695    0.6336642796760983    0.1372495284785128 Se
   0.1357232465491724    0.3720397462184295    0.6383467816506984 Se
   0.1336007006529552    0.6327556994529189    0.3682239399165056 Se
   0.3694106007843843    0.3662027400708993    0.8663669949850278 Se
   0.8813114323982802    0.1152091940223029    0.6163011306444441 Se
   0.1190275833491787    0.3890807187222718    0.1117865433846380 Se
   0.1228404839343810    0.1201281706680751    0.3831563312819604 Se
   0.8761195087058772    0.3849300330842231    0.8774040848647175 Se
   0.8687799912696359    0.1390353724892043    0.1242062370413328 Se
   0.6329753318492539    0.8675921795693924    0.6332132502955788 Se
   0.6339610877952124    0.1310682964361730    0.3671234607784567 Se
   0.8639319266918987    0.8604222315002478    0.8731872116147064 Se
   0.8832837460153123    0.6155713650163959    0.1160168620402913 Se
   0.1127549612985302    0.8778619892955150    0.6226406211197967 Se
   0.1175233034928588    0.6170991124177696    0.8828725711557665 Se
   0.8854400156727794    0.8840195814968641    0.3829422965527276 Se
   0.8679795706930811    0.6312419692051192    0.6323672694949622 Se
   0.6318566405406031    0.3728490616487037    0.1309730994774913 Se
   0.6333141430938924    0.6356455868897366    0.8687289581725061 Se
   0.8599908389384728    0.3637587467169881    0.3721240646824667 Se
