Mg7 Sc16 Se32
1.0
  11.1003847944368736    0.0000000000000000    0.0000000000000000
   0.0000000000000000   11.1003847944368736    0.0000000000000000
  -0.0000000000000000   -0.0000000000000000   11.1003847944368736
Mg Sc Se
7 16 32
direct
   0.4883444837257324    0.9918679221474328    0.5122717581609535 Mg
   0.2351414747268253    0.7523123650851073    0.7587134538249607 Mg
   0.4996107275480416    0.4940256310300979    0.9988605902558657 Mg
   0.7417328996688723    0.2507840518726782    0.7600758378752427 Mg
   0.0502882282318265    0.0301450567201939    0.0507973148978238 Mg
   0.7577676805049712    0.7431885018143406    0.2454841163616412 Mg
   0.9998921604068060    0.4990286782962473    0.5009419891129943 Mg
   0.1199319396651683    0.8732210026619612    0.3683723329955336 Sc
   0.3696939662782079    0.1289211521486465    0.8740438383523166 Sc
   0.3794415076536234    0.3672934533568797    0.6154250306328265 Sc
   0.1305157570974106    0.1276220978267188    0.6285134391648755 Sc
   0.1270032621152783    0.3717842375653553    0.8761010297590073 Sc
   0.3754283775780827    0.6302732782030087    0.3833246414217636 Sc
   0.3792070479349706    0.8771751088506705    0.1195166570753040 Sc
   0.1178022393160435    0.6287467184122310    0.1129601709456542 Sc
   0.6245471913528495    0.8876684997852743    0.8660555708338722 Sc
   0.8828453443524481    0.1260434824357755    0.3771558140772414 Sc
   0.8695899866981828    0.3831779448183774    0.1340729459896942 Sc
   0.6209038861326830    0.1207299735466423    0.1169037031182099 Sc
   0.6203374480628028    0.3695199990360313    0.3681288417163467 Sc
   0.8580154584752165    0.6215874925411995    0.8684757792893538 Sc
   0.8606900092981454    0.8641537916310094    0.6207907637566307 Sc
   0.6207646107229108    0.6179500415152627    0.6135203883469107 Sc
   0.3847588439471373    0.1156723106580551    0.1040601133227325 Se
   0.6037154662565594    0.3921959850603769    0.6265262334486311 Se
   0.6168557545888813    0.1068921461526160    0.8885240074215122 Se
   0.3772127974363910    0.3812949869832248    0.3852620971644652 Se
   0.3728810952404560    0.1302298481933777    0.6313270423167184 Se
   0.1394613497833140    0.8753346762353352    0.1181948772391490 Se
   0.1411925348578005    0.1303855297694768    0.8538076042617710 Se
   0.3653364966976833    0.8861180768349834    0.3737619367522777 Se
   0.3853157354419635    0.6150040658345726    0.6175633781990741 Se
   0.6147737780971635    0.8831261324288530    0.1303069391820827 Se
   0.6179734189611900    0.6302423083170166    0.3881539716812323 Se
   0.3818937903641886    0.8847027643357777    0.8845979076353677 Se
   0.3756978083486642    0.6300401011473696    0.1307157988920957 Se
   0.1310746970471217    0.3671804121777668    0.6287684574000838 Se
   0.1335692858056348    0.6318214077591071    0.3680144002354326 Se
   0.3586447037985472    0.3654268661645682    0.8549633938089227 Se
   0.8714583263300298    0.1164212028388067    0.6208492298082297 Se
   0.1205252690792100    0.3743255699344605    0.1241758490085062 Se
   0.1232337452012232    0.1013588563124515    0.3749216342186213 Se
   0.8726041147355441    0.3893190434234371    0.8912708586436447 Se
   0.8700876676971828    0.1334019808523847    0.1337592306682124 Se
   0.6258114445431621    0.8677222903259065    0.6305996721340766 Se
   0.6353787196151078    0.1384955896278686    0.3594441463329368 Se
   0.8673797551947602    0.8711679530230876    0.8706703870355622 Se
   0.8918397112426337    0.6060911947353788    0.1134718974948862 Se
   0.1123707690580720    0.8805845467318053    0.6211500666742039 Se
   0.1107981517044943    0.6207343871948658    0.8893237923931770 Se
   0.8858986889104136    0.8829010888968756    0.3806448728776946 Se
   0.8674574373405028    0.6330519033770516    0.6329753054094513 Se
   0.6376348834984136    0.3684125887781332    0.1305201502124248 Se
   0.6274208213129714    0.6330966239037119    0.8647286366409033 Se
   0.8600580005543805    0.3600419550086926    0.3691303497023554 Se
