Mg7 Sc16 Se32
1.0
  11.1003847944368736    0.0000000000000000    0.0000000000000000
   0.0000000000000000   11.1003847944368736    0.0000000000000000
  -0.0000000000000000   -0.0000000000000000   11.1003847944368736
Mg Sc Se
7 16 32
direct
   0.3884826186485361    0.1143557646991661    0.4031728167371835 Mg
   0.2529646862342226    0.7538803328567734    0.7539702212762769 Mg
   0.5002953427900450    0.4999422946404368    0.9998437222697500 Mg
   0.7451324008399887    0.2527269592593069    0.7498899871746355 Mg
   0.0000203030784180    0.9999757558856381    0.0000871365690503 Mg
   0.7529939385782780    0.7478136176597342    0.2550507500552392 Mg
   0.0007149806645513    0.4999953365526026    0.5003693739073281 Mg
   0.1240831218975600    0.8715594792700558    0.3803674128903094 Sc
   0.3784586332561637    0.1261830224582526    0.8756625685841982 Sc
   0.3757411189871445    0.3753232959796384    0.6254652595503661 Sc
   0.1268286224099230    0.1244883450764682    0.6257142248752903 Sc
   0.1235681366784347    0.3773809814784819    0.8691432138624718 Sc
   0.3753693514217017    0.6286609836377871    0.3770609991236676 Sc
   0.3761566549813162    0.8758146905484486    0.1246251802025443 Sc
   0.1258683060007451    0.6259789397776984    0.1249322985363739 Sc
   0.6307196924412740    0.8758647023417164    0.8727516501048586 Sc
   0.8710585420391067    0.1239809420371385    0.3715098863586115 Sc
   0.8752547095455302    0.3750471649781784    0.1255491523776758 Sc
   0.6296491098895797    0.1232902837535188    0.1305410531530514 Sc
   0.6206254068922182    0.3722680246343710    0.3779385960303019 Sc
   0.8731206715653820    0.6258649556819427    0.8749039789093765 Sc
   0.8753524554281567    0.8796402967507410    0.6265488014365886 Sc
   0.6255352271339653    0.6216869737461660    0.6265561068879439 Sc
   0.3802073562535385    0.1107671101418256    0.1189724339348214 Se
   0.6130611228178339    0.3810645849967124    0.6160971114425362 Se
   0.6181135027493713    0.1201079716398548    0.8859409844998745 Se
   0.3851330098363246    0.3823739497767863    0.3821590154094973 Se
   0.3723817106967167    0.1330256900036433    0.6324327142394199 Se
   0.1360739030397228    0.8612430456853407    0.1335669363125930 Se
   0.1316558250437194    0.1318937825917596    0.8672448438634479 Se
   0.3673408404587635    0.8598694337002685    0.3695932242441141 Se
   0.3830591683772056    0.6153124435310970    0.6174826096372534 Se
   0.6201807963722247    0.8832190091870049    0.1169294633622091 Se
   0.6138927003342670    0.6178120809137733    0.3796984056374649 Se
   0.3837048893020850    0.8822357380957960    0.8828446737076580 Se
   0.3689509812260933    0.6347092365118098    0.1302891755266630 Se
   0.1329814126294377    0.3688203889278676    0.6392583943229945 Se
   0.1312399341994919    0.6311433062120678    0.3666711151548026 Se
   0.3671040435069991    0.3669228737522585    0.8675655713415422 Se
   0.8841207204957946    0.1189432781485825    0.6159979567096040 Se
   0.1200040477608414    0.3769043891846313    0.1169272427734796 Se
   0.1162753658455762    0.1211603600516539    0.3817239309285109 Se
   0.8846608393922257    0.3831826577797539    0.8798615206952562 Se
   0.8695952542244791    0.1327057221900910    0.1321188074301961 Se
   0.6341459157944570    0.8674125038087142    0.6356460844185179 Se
   0.6344005115784263    0.1310266785853401    0.3636519805451676 Se
   0.8721989644262972    0.8693061490677376    0.8681160137257823 Se
   0.8806848111846599    0.6190275841125631    0.1141499222365011 Se
   0.1177597046598743    0.8830470483509784    0.6168833058140076 Se
   0.1181430875087493    0.6125065845203049    0.8774215425185399 Se
   0.8853670997237271    0.8849486074229443    0.3822392086219706 Se
   0.8740309159382716    0.6320709019546866    0.6344648828501398 Se
   0.6332986972815553    0.3676751850051997    0.1328542986169502 Se
   0.6279866001110522    0.6337132958810449    0.8618749518135017 Se
   0.8669145603737144    0.3676913008475574    0.3684029237331689 Se
