Mg7 Sc16 Se32
1.0
  11.1003847944368736    0.0000000000000000    0.0000000000000000
   0.0000000000000000   11.1003847944368736    0.0000000000000000
  -0.0000000000000000   -0.0000000000000000   11.1003847944368736
Mg Sc Se
7 16 32
direct
   0.5089343848492753    0.9868389104341898    0.5120521669690106 Mg
   0.2452209023714279    0.7511483816294309    0.7499582163086080 Mg
   0.4306800397096930    0.4211058716282917    0.0639642381790116 Mg
   0.7522500490004148    0.2498723591468471    0.7517641282982743 Mg
   0.9878082056722862    0.0062128729514728    0.0070471261347138 Mg
   0.7500496407731114    0.7494801883060955    0.2496515826239795 Mg
   0.9984408871769130    0.5046872698935451    0.5053088549019319 Mg
   0.1365818654883763    0.8742134494486503    0.3866005417964151 Sc
   0.3760825510443074    0.1327990100680296    0.8708965027096796 Sc
   0.3705220028558314    0.3633731221195299    0.6091259060928956 Sc
   0.1219315334290984    0.1189821355901874    0.6302203752909352 Sc
   0.1248111334577848    0.3776650752150985    0.8788115863572216 Sc
   0.3722086210479336    0.6217427808757419    0.3782943625491548 Sc
   0.3725877771619594    0.8654831994969571    0.1360088802142855 Sc
   0.1177138318271851    0.6080396432746132    0.1330164930224847 Sc
   0.6149183300097402    0.8713603350539186    0.8710582028015302 Sc
   0.8742492019756979    0.1224263814226507    0.3742576294972445 Sc
   0.8644757688046267    0.3704603538363116    0.1092941705159907 Sc
   0.6182920046101600    0.1242160385896096    0.1167822092217366 Sc
   0.6137637993481621    0.3818982902061743    0.3850518439413198 Sc
   0.8738269868373019    0.6244632637361026    0.8715735002671851 Sc
   0.8768406310357586    0.8708494508264827    0.6210990106593421 Sc
   0.6217591791216963    0.6359611495270595    0.6152083989004133 Sc
   0.3742595900301462    0.1253403706725242    0.1217906204821786 Se
   0.6164550410043913    0.3812771029183877    0.6169794238103983 Se
   0.6121284591744149    0.1161830474836236    0.8767152356989301 Se
   0.3839755355617705    0.3846137582451090    0.3805993857686972 Se
   0.3673722490171643    0.1297937023071159    0.6304508642956734 Se
   0.1180621762518822    0.8650554397886633    0.1263077153755094 Se
   0.1277701981212156    0.1346158719089046    0.8673463011355875 Se
   0.3704182438281994    0.8640342846290667    0.3525142144842340 Se
   0.3769586102777502    0.6212370539627518    0.6025652218573893 Se
   0.6157746981293000    0.8824378246430732    0.1178262738791418 Se
   0.6143344852222420    0.6229997475043658    0.3777148520541890 Se
   0.3822961453082071    0.8804421687009579    0.8820907578344457 Se
   0.3683717674834008    0.6175767456397302    0.1355293243723435 Se
   0.1291668259490520    0.3658729590015272    0.6331658162007074 Se
   0.1442666455752043    0.6251398386171675    0.3665121973583949 Se
   0.3662903236702355    0.3693384907000583    0.8675807770367173 Se
   0.8824966333180732    0.1175477668278237    0.6164175945570596 Se
   0.1236911574108071    0.3793093433014345    0.1168504286466783 Se
   0.1163759251958762    0.1151464756513072    0.3903235419315495 Se
   0.8776985639258613    0.3776935971197567    0.8799155185672699 Se
   0.8693687819106564    0.1343587458758604    0.1356035571015397 Se
   0.6324479284063853    0.8671140468803077    0.6333650494112509 Se
   0.6310687897219643    0.1393586347899168    0.3653958811871166 Se
   0.8634165269871261    0.8704648642081485    0.8572085827575496 Se
   0.8873037344307801    0.6176359455931498    0.1284577680585663 Se
   0.1137859274396284    0.8825811102659367    0.6158258296106915 Se
   0.1169349314662888    0.6158022156024524    0.8854353861246697 Se
   0.8747108413553273    0.8709630365819491    0.3705627985493166 Se
   0.8711884381481139    0.6269003991465204    0.6359835192071283 Se
   0.6515608543968474    0.3745742255282729    0.1351790639001993 Se
   0.6430163155025569    0.6422495003152215    0.8564852763522290 Se
   0.8606390176659663    0.3694853799125870    0.3694445447327584 Se
