Mg7 Sc16 Se32
1.0
  11.1003847944368736    0.0000000000000000    0.0000000000000000
   0.0000000000000000   11.1003847944368736    0.0000000000000000
  -0.0000000000000000   -0.0000000000000000   11.1003847944368736
Mg Sc Se
7 16 32
direct
   0.4968814280391187    0.0087747159896267    0.4990993119429697 Mg
   0.2478525193670870    0.7443979327310732    0.7460983860391599 Mg
   0.5020167736626773    0.5027849235441429    0.9997354777269871 Mg
   0.7640433507552780    0.2569356676359243    0.7429023072974731 Mg
   0.0000708183506674    0.9984688893343517    0.9988941771380884 Mg
   0.7472871597328077    0.7583783301027361    0.2478485685816791 Mg
   0.2290203766233638    0.2462730073380927    0.2019303333276680 Mg
   0.1313228581345660    0.8769076659837618    0.3748567490900149 Sc
   0.3602939655752203    0.1182092167573353    0.8769260437475045 Sc
   0.3682483496797553    0.3758629599845507    0.6314284271686950 Sc
   0.1193968031972495    0.1287233061701052    0.6207353089248957 Sc
   0.1219060751979192    0.3769937924741775    0.8810209456061420 Sc
   0.3741985943345786    0.6256016822856678    0.3794055196255470 Sc
   0.3736251555687451    0.8760023968062238    0.1255258310527723 Sc
   0.1321017546445648    0.6228538159582959    0.1187933463835855 Sc
   0.6156767706033968    0.8662267570656521    0.8671797326331590 Sc
   0.8761780531444610    0.1265858897767461    0.3739551124172342 Sc
   0.8826094759452121    0.3776337638155328    0.1277796966693708 Sc
   0.6166810877751069    0.1307741132237511    0.1224651911818885 Sc
   0.6364862992328241    0.3843623903836512    0.3682629836511684 Sc
   0.8707360153549398    0.6245819727103009    0.8839624766512750 Sc
   0.8757391006196358    0.8742688115414184    0.6249704050615702 Sc
   0.6334494819743272    0.6305746581929370    0.6334361410780328 Sc
   0.3757031192414221    0.1072607036929208    0.1083999502888763 Se
   0.6190864694757734    0.3932583404665881    0.6117414171638513 Se
   0.6187075575224241    0.1162024626345886    0.8840678095746854 Se
   0.3883918092707876    0.3830087074460565    0.3880264385892478 Se
   0.3808098790432140    0.1265153698481017    0.6320043288767579 Se
   0.1370199522817830    0.8625787893818666    0.1329364458602274 Se
   0.1293688165241577    0.1213179395018901    0.8596669522299810 Se
   0.3640914197337285    0.8810301715452945    0.3763889922615706 Se
   0.3789332833933388    0.6300141042088648    0.6104037635994780 Se
   0.6251891647687953    0.8753180670426437    0.1092622084578747 Se
   0.6051953508767507    0.6175669245127429    0.3858692436115487 Se
   0.3869674830172036    0.8822702050609917    0.8825956331805844 Se
   0.3656225574312046    0.6425471234161038    0.1293977254306923 Se
   0.1336493143761597    0.3590206950161651    0.6385102808969627 Se
   0.1349121389844609    0.6307825393699610    0.3556755671808315 Se
   0.3641799885125818    0.3747305968110984    0.8639513829493867 Se
   0.8836720726028050    0.1220360021976632    0.6011809022669755 Se
   0.1297449392821425    0.3857727122108350    0.1225587968271176 Se
   0.1208132154126074    0.1074271579658608    0.3873378945862039 Se
   0.8798427629166428    0.3818088956051398    0.8707827006997143 Se
   0.8675379903692851    0.1341220952444059    0.1337548989873824 Se
   0.6299571114939236    0.8677168674596407    0.6365205359897126 Se
   0.6442489742448119    0.1398978751032688    0.3765688100489701 Se
   0.8686034903050410    0.8712541346703551    0.8541251964349220 Se
   0.8873502750017221    0.6228993130629036    0.1103868374157697 Se
   0.1178084212808588    0.8868545783736235    0.6161005549900873 Se
   0.1163738688601988    0.6180000655336225    0.8704662112096960 Se
   0.8908080203247446    0.8800710611930975    0.3789105888065556 Se
   0.8676048502250672    0.6339035905653290    0.6321474956564492 Se
   0.6318731804186524    0.3645926234961693    0.1360467124493294 Se
   0.6349585676328143    0.6420080789934020    0.8791313756696936 Se
   0.8629127704136573    0.3716941757873718    0.3655115610652976 Se
