Mg7 Sc16 Se32
1.0
  11.1003847944368736    0.0000000000000000    0.0000000000000000
   0.0000000000000000   11.1003847944368736    0.0000000000000000
  -0.0000000000000000   -0.0000000000000000   11.1003847944368736
Mg Sc Se
7 16 32
direct
   0.3566988520424881    0.1092307902820092    0.3913713364291532 Mg
   0.2470932492566913    0.7635766289556482    0.7529841199670256 Mg
   0.4929275821325470    0.4949498857447605    0.0148166604499326 Mg
   0.7638076943260861    0.2459222937330679    0.7492706895058865 Mg
   0.9998650196724607    0.0001178765803515    0.0000491654158853 Mg
   0.7523200897158531    0.7498485998679629    0.2516316197183103 Mg
   0.9978242853521229    0.5005698554765203    0.5000658608815890 Mg
   0.1213263381382388    0.8779785814970378    0.3638723697059751 Sc
   0.3722646105422309    0.1344450992954043    0.8824054109764112 Sc
   0.3657149484666968    0.3709544870648268    0.6251281651947304 Sc
   0.1281520307444665    0.1264059973565992    0.6393110981398620 Sc
   0.1267418017199015    0.3790459325714749    0.8769989702266248 Sc
   0.3758615340524467    0.6269947445065928    0.3813004353812516 Sc
   0.3847543503391627    0.8732361257788551    0.1262174094633102 Sc
   0.1330693798861239    0.6210340532771624    0.1212638513785175 Sc
   0.6159939509219413    0.8692801990557856    0.8673493406609434 Sc
   0.8795706067902364    0.1146008690354232    0.3679815473037228 Sc
   0.8792301539053106    0.3826598089228052    0.1255949894751191 Sc
   0.6245367538723106    0.1247114344798220    0.1246859997289320 Sc
   0.6265230809782421    0.3737275026580137    0.3713597968871322 Sc
   0.8782335149827009    0.6333617113887738    0.8615555051058712 Sc
   0.8766954675133900    0.8736375154773087    0.6253518383808641 Sc
   0.6216824693824922    0.6250402165203521    0.6317388616696371 Sc
   0.3804312679882441    0.1093918618133804    0.1136396352639068 Se
   0.6078684382561373    0.3804401550716439    0.6170400800452610 Se
   0.6171504120892206    0.1172338224856119    0.8825716181621832 Se
   0.3787289690763128    0.3798020622627694    0.3822944945654016 Se
   0.3676182553059840    0.1347594425369361    0.6324063751692842 Se
   0.1294444282762151    0.8693886256291019    0.1320476255597104 Se
   0.1314607303694255    0.1365700457971177    0.8676494643179549 Se
   0.3706793306366491    0.8628887082580591    0.3570583928670794 Se
   0.3793368381727084    0.6197257201650964    0.6157222308370689 Se
   0.6190475328805047    0.8848519205502926    0.1180050588795748 Se
   0.6152133177060378    0.6194400545318450    0.3797326349675360 Se
   0.3877212020179231    0.8841413704024227    0.8689552978107298 Se
   0.3558129928774746    0.6234807364853340    0.1339718433398934 Se
   0.1238658562976922    0.3569377078148107    0.6330187824302277 Se
   0.1430295112835698    0.6188389638959892    0.3674408264995985 Se
   0.3729266445090485    0.3629264598484626    0.8666805890302408 Se
   0.8765229074441589    0.1137181910629968    0.6153994887544487 Se
   0.1090868449544266    0.3867682519427152    0.1290751451983122 Se
   0.1146502995713957    0.1309806663478801    0.3864559560646823 Se
   0.8815170901619872    0.3824029109112383    0.8830583667105156 Se
   0.8577918790931107    0.1344961704147617    0.1328865907870176 Se
   0.6317530929484970    0.8709324015478525    0.6329675630901046 Se
   0.6357536967012138    0.1262286487859726    0.3674434361221178 Se
   0.8724048886896077    0.8646273341263618    0.8649343196402300 Se
   0.8900346089298308    0.6162581210275274    0.1205831515530944 Se
   0.1167112088841469    0.8855009245421381    0.6239793250370396 Se
   0.1183590745376252    0.6071881003192421    0.8737762694260529 Se
   0.8767147613667052    0.8826637510016372    0.3855230889467479 Se
   0.8633939428208166    0.6455402466513046    0.6225668883883094 Se
   0.6319161562653393    0.3713154425053451    0.1249126545792277 Se
   0.6425986125710657    0.6340357624824087    0.8588062053092199 Se
   0.8628997796808915    0.3702493502220415    0.3617848669470120 Se
