Mg7 Sc16 Se32
1.0
  11.1003847944368736    0.0000000000000000    0.0000000000000000
   0.0000000000000000   11.1003847944368736    0.0000000000000000
  -0.0000000000000000   -0.0000000000000000   11.1003847944368736
Mg Sc Se
7 16 32
direct
   0.5131838680947851    0.0016266445643084    0.5014804032611687 Mg
   0.1710039912096976    0.3157797925648547    0.2479126162142334 Mg
   0.4948571829824545    0.4919171863843471    0.0111402572720854 Mg
   0.7529362229895872    0.2524291355504876    0.7619213987656125 Mg
   0.0001203958884319    0.0056371257280401    0.0055123440692717 Mg
   0.7699659298667231    0.7474349258412030    0.2462968918564531 Mg
   0.0154068668226701    0.4936449429002529    0.5059668743386294 Mg
   0.1311072248307268    0.8693066143317505    0.3790263057010148 Sc
   0.3783257633138047    0.1259701603864742    0.8676651221528959 Sc
   0.3907663987842880    0.3917120275745816    0.6234806821985994 Sc
   0.1293203052844964    0.1239947771505484    0.6324837507687472 Sc
   0.1241771460833770    0.3735679587243985    0.8746417853701207 Sc
   0.3733174079380357    0.6290079763438783    0.3790518697373927 Sc
   0.3756311379926184    0.8732851135732288    0.1257167714074898 Sc
   0.1361819099131200    0.6051279764703061    0.1244172360844186 Sc
   0.6396546231525965    0.8871409037908317    0.8636946656203969 Sc
   0.8710124354121433    0.1273218349728304    0.3773109470724679 Sc
   0.8801102485038260    0.3737262854593489    0.1319929044931119 Sc
   0.6252230200405755    0.1233212947195560    0.1235049960260433 Sc
   0.6293131431232060    0.3602647479845723    0.3577284290605320 Sc
   0.8873226821796565    0.6088900052709006    0.8833199643561788 Sc
   0.8810507663449774    0.8769878859982999    0.6114500781214876 Sc
   0.6240677393939214    0.6184752635055599    0.6113892536805551 Sc
   0.3877721637662100    0.1180238509977430    0.1140993589639372 Se
   0.6151188896025002    0.3939748413498259    0.6364689960448888 Se
   0.6135640260888209    0.1121873144379509    0.8759738671815537 Se
   0.3783436449414178    0.3793124601058145    0.3999999365378205 Se
   0.3740557924229308    0.1323091914041723    0.6355656024698907 Se
   0.1208872833604135    0.8859869781907143    0.1297744039231415 Se
   0.1311728501767496    0.1224376877105724    0.8773030957779607 Se
   0.3676793623124247    0.8824232408808996    0.3748424378754115 Se
   0.3885583191393417    0.6066001540576322    0.6099640401281590 Se
   0.6046052771569139    0.8967344362520745    0.1291359749856471 Se
   0.6224652244900148    0.6175571704584938    0.3819852276066007 Se
   0.3892178356060663    0.8833361443436434    0.8914760957585599 Se
   0.3687616615536559    0.6188694910884559    0.1383117738031019 Se
   0.1457114749590770    0.3619123688770928    0.6409600210954662 Se
   0.1339704848591393    0.6135799457810344    0.3638308806943781 Se
   0.3625096941520283    0.3640124181915586    0.8650911870616503 Se
   0.8850380673085274    0.1164353615413740    0.6154936193924038 Se
   0.1014835735856405    0.3780958209770340    0.1110347878154878 Se
   0.1133884338194853    0.1143611108693862    0.3776615301605944 Se
   0.8827716207239787    0.3770968854514705    0.8707160050898227 Se
   0.8694693973731847    0.1394188322937969    0.1378536589398569 Se
   0.6376759450021304    0.8761854892310140    0.6527365651484360 Se
   0.6270584158345022    0.1479300884213204    0.3607641012258353 Se
   0.8568528663113811    0.8833274054495007    0.8637627860371019 Se
   0.8820958818553913    0.6176605879598361    0.1179707568281367 Se
   0.1144518546189096    0.8698063308177300    0.6117983819574547 Se
   0.1176535382622459    0.6376872111335494    0.8817467750085316 Se
   0.8901042378390575    0.8810600793609132    0.3828244972082951 Se
   0.8658509862240313    0.6354450891279919    0.6323139402568119 Se
   0.6333498200069817    0.3673333900943174    0.1325482783785342 Se
   0.6291486015381509    0.6462637465314083    0.8546542488211621 Se
   0.8705380593707164    0.3656411144438470    0.3691423739372106 Se
