Mg7 Sc16 Se32
1.0
  11.1003847944368736    0.0000000000000000    0.0000000000000000
   0.0000000000000000   11.1003847944368736    0.0000000000000000
  -0.0000000000000000   -0.0000000000000000   11.1003847944368736
Mg Sc Se
7 16 32
direct
   0.5048312350785584    0.0017398055482846    0.5009733819154020 Mg
   0.2488511421391392    0.7496376679158891    0.7479928957360548 Mg
   0.4976352131330739    0.5015843887278738    0.0043853309848047 Mg
   0.7499639372405005    0.2500283835690452    0.7499232142306983 Mg
   0.9995780563654924    0.0003550184944355    0.0012048727663807 Mg
   0.7513183475460189    0.7486020759073823    0.2511128308036280 Mg
   0.1154490708280654    0.4069150477188658    0.3893146152845567 Mg
   0.1252971784248262    0.8746193421955003    0.3743134860967667 Sc
   0.3749243234551744    0.1250001239299389    0.8752005602063967 Sc
   0.3748800048543233    0.3780351043124328    0.6259717514432787 Sc
   0.1237811608320736    0.1218044697935732    0.6228464227172319 Sc
   0.1198356338170306    0.3731394548936838    0.8780777272626759 Sc
   0.3736114118241844    0.6229578799405993    0.3745407510156546 Sc
   0.3760855350460973    0.8757254412197339    0.1228180533298556 Sc
   0.1248568848546672    0.6250071594402294    0.1251591146081106 Sc
   0.6263118076854363    0.8754128356953025    0.8738659793222724 Sc
   0.8782235183462704    0.1289801337800777    0.3703486766401278 Sc
   0.8721299573315219    0.3785420160950558    0.1210521545948180 Sc
   0.6224582516003090    0.1206388322009863    0.1259970381023347 Sc
   0.6242235107796152    0.3746382649969463    0.3772514291280356 Sc
   0.8732739603038943    0.6188849889838007    0.8760983908014026 Sc
   0.8737103714121845    0.8788773140724873    0.6293528714028275 Sc
   0.6297394743842599    0.6294479326453768    0.6240033790992905 Sc
   0.3826867904728559    0.1110848114849035    0.1180317974989303 Se
   0.6160455776386858    0.3820861977611605    0.6187249763407123 Se
   0.6178530386331309    0.1167681980065035    0.8818311846008420 Se
   0.3802729674164013    0.3793316187464466    0.3781936159738931 Se
   0.3673397359426153    0.1297705089756045    0.6297370824472224 Se
   0.1324304914416533    0.8668939285520539    0.1344028094348964 Se
   0.1357698125981306    0.1392828351348681    0.8688805468951913 Se
   0.3703420189479297    0.8695927151545529    0.3719252655698869 Se
   0.3810568367387816    0.6149375627671164    0.6152687356247272 Se
   0.6170763197922559    0.8824079054860563    0.1164348756532472 Se
   0.6175047147670442    0.6179607112526337    0.3837042045175501 Se
   0.3836014564959437    0.8819735434961916    0.8787010449662424 Se
   0.3685463279934520    0.6327659384921247    0.1307327155406965 Se
   0.1325700064737489    0.3708170955203820    0.6283241640175085 Se
   0.1332848780556705    0.6329121752847657    0.3663671888640113 Se
   0.3730860338372841    0.3634598424216338    0.8655412740700941 Se
   0.8816993580037318    0.1181961337886337    0.6201993413912696 Se
   0.1194637657904929    0.3834408914560215    0.1207047447783671 Se
   0.1131340208872451    0.1142456192558831    0.3805586082337217 Se
   0.8835838720154425    0.3831746525590718    0.8849419200242401 Se
   0.8643501898101227    0.1375785624862763    0.1305152998787993 Se
   0.6330514863056489    0.8698424231117579    0.6358249349811094 Se
   0.6296308629820674    0.1327256697784488    0.3666164631141834 Se
   0.8702750347651060    0.8630863785331366    0.8631678897601001 Se
   0.8818794851941240    0.6165124784065816    0.1124579647355102 Se
   0.1173498122645565    0.8826643004758929    0.6167626336876504 Se
   0.1180746733315506    0.6148503704610195    0.8850409585696207 Se
   0.8844333897091423    0.8818443679374673    0.3846741984660288 Se
   0.8671636723720544    0.6328900154649831    0.6328164772029647 Se
   0.6346180826206234    0.3681215971091770    0.1324329844107908 Se
   0.6306368721321163    0.6387868185872329    0.8683875035332205 Se
   0.8674099007889972    0.3699228801721121    0.3659197447352525 Se
