Mg7 Sc16 Se32
1.0
  11.1003847944368736    0.0000000000000000    0.0000000000000000
   0.0000000000000000   11.1003847944368736    0.0000000000000000
  -0.0000000000000000   -0.0000000000000000   11.1003847944368736
Mg Sc Se
7 16 32
direct
   0.2500127554014491    0.2499081465171813    0.2500424725127620 Mg
   0.2505430856266113    0.7447079540088329    0.7462832222324600 Mg
   0.5023733772931219    0.4979535265123879    0.9974494811901010 Mg
   0.7503263205340017    0.2491358664830026    0.7551173858585126 Mg
   0.9992917915114129    0.9984542609143081    0.9978618536644667 Mg
   0.7479286557714535    0.7500968681804125    0.2574071328810273 Mg
   0.9992555078997929    0.5024269430178764    0.5046292086349893 Mg
   0.1192962954727130    0.8716273669099392    0.3721865424319271 Sc
   0.3725588568680728    0.1224181938594852    0.8768067967529110 Sc
   0.3714748260238357    0.3743638337683249    0.6246131031500856 Sc
   0.1240569277383350    0.1267025130623805    0.6260432134588636 Sc
   0.1292502287886362    0.3752552699159598    0.8765558251519139 Sc
   0.3767061632713009    0.6186323385784614    0.3722043619277677 Sc
   0.3751588774192207    0.8751137897226240    0.1244671630497448 Sc
   0.1247719821181767    0.6226416763982052    0.1249641825091383 Sc
   0.6205194649380505    0.8769668474527876    0.8700320714302938 Sc
   0.8749226338222497    0.1257429421523184    0.3794118838293257 Sc
   0.8753616892834769    0.3736041621881839    0.1276821961392910 Sc
   0.6263895939898632    0.1242851129538754    0.1289686759584985 Sc
   0.6212452354765148    0.3741361188258866    0.3798758089049049 Sc
   0.8747910690026004    0.6187934131823989    0.8772600987873488 Sc
   0.8754044953600296    0.8674811391967300    0.6248398510965837 Sc
   0.6219020421532486    0.6311914079874970    0.6221327528257027 Sc
   0.3782730899980438    0.1223350986392766    0.1157584282256282 Se
   0.6209043390245256    0.3824991650310535    0.6107010562705499 Se
   0.6219185030532116    0.1182496180844971    0.8844592945054964 Se
   0.3861239574578536    0.3794319316910390    0.3812256467636213 Se
   0.3695569061291608    0.1383228000258148    0.6284962687893773 Se
   0.1285600353836167    0.8666300664661998    0.1369741649358107 Se
   0.1300953145388825    0.1345364325289514    0.8657970520591887 Se
   0.3681718251536049    0.8657046727598809    0.3731949463869279 Se
   0.3834686695487864    0.6141137291621834    0.6178070434967512 Se
   0.6148949945984620    0.8898138876522746    0.1156186566591223 Se
   0.6145892145301480    0.6121608942675294    0.3837665803985485 Se
   0.3833805477902890    0.8828726337321631    0.8829991904567374 Se
   0.3671719133656971    0.6330812161822283    0.1327760980827799 Se
   0.1298515049035680    0.3729677793779836    0.6336451057395780 Se
   0.1350167687122128    0.6365903101970297    0.3686023972002174 Se
   0.3629440206756339    0.3651941760509441    0.8638151700505295 Se
   0.8839706728264652    0.1168500328020484    0.6175841345360908 Se
   0.1187662686122273    0.3795565403949340    0.1205054879609841 Se
   0.1189821417968146    0.1180011655869555    0.3851568114385864 Se
   0.8818740777008272    0.3829145404374166    0.8871897374153386 Se
   0.8675216638367993    0.1336021644677969    0.1314798479270467 Se
   0.6357407881890205    0.8686172945901974    0.6322711388048646 Se
   0.6332804112889692    0.1360355999053863    0.3671463596739513 Se
   0.8706758933471163    0.8672622072075693    0.8627476131914456 Se
   0.8817080670767172    0.6171889608685495    0.1162504623112553 Se
   0.1160608611675480    0.8843402796721684    0.6135024023119338 Se
   0.1175670694857136    0.6159966953591395    0.8811714687786745 Se
   0.8829928512342490    0.8830290886579530    0.3817778358286954 Se
   0.8644498635116222    0.6352511930080667    0.6316462716291202 Se
   0.6320851334014419    0.3635699821549996    0.1283113808275394 Se
   0.6309405730211380    0.6345041780768995    0.8662045964712433 Se
   0.8722830503184741    0.3629147763279339    0.3678611657004933 Se
