Mg7 Sc16 Se32
1.0
  11.1003847944368736    0.0000000000000000    0.0000000000000000
   0.0000000000000000   11.1003847944368736    0.0000000000000000
  -0.0000000000000000   -0.0000000000000000   11.1003847944368736
Mg Sc Se
7 16 32
direct
   0.5127835203148455    0.0084990823715297    0.4976452279510015 Mg
   0.2488176320086428    0.7541087875257182    0.7471161919359383 Mg
   0.5041516284078423    0.5054647841184741    0.9941212012319838 Mg
   0.7482147137493448    0.2506780714254938    0.7512389381096692 Mg
   0.1230773064909177    0.1817926467673231    0.1717542900636520 Mg
   0.7508119094310073    0.7511239145507732    0.2500334205348220 Mg
   0.0006493579768544    0.4996600235792391    0.4996258911773406 Mg
   0.1192567495936229    0.8779624365807581    0.3735320308378286 Sc
   0.3770262873875500    0.1251573314928455    0.8697265138428267 Sc
   0.3831225576206867    0.3889993185943247    0.6256495588011824 Sc
   0.1311122000624323    0.1255503677937377    0.6231049483690889 Sc
   0.1246676419983370    0.3766786546052366    0.8726141997244926 Sc
   0.3687533709546614    0.6392238380378280    0.3695461919562187 Sc
   0.3730954630321556    0.8759380750298899    0.1236099743178124 Sc
   0.1245714446385047    0.6274734024086343    0.1336837868418583 Sc
   0.6304936933199904    0.8789443159836168    0.8849847516392059 Sc
   0.8618436111025856    0.1342003549795056    0.3766873160324616 Sc
   0.8831228713953919    0.3756807986173256    0.1205150825964871 Sc
   0.6221168320462076    0.1176637839677444    0.1339399624355731 Sc
   0.6223560508691808    0.3749295031546742    0.3757903436277851 Sc
   0.8775990016339997    0.6274154203760604    0.8807862221667967 Sc
   0.8702362182609440    0.8665952734252393    0.6189842369069808 Sc
   0.6362812793925485    0.6303608922426179    0.6221877063119601 Sc
   0.3952282652494409    0.1275810961391630    0.1157734211181942 Se
   0.6154282631528601    0.3845934363409899    0.6174487058771240 Se
   0.6161093661634899    0.1138380701353094    0.8829820883125317 Se
   0.3695704519934097    0.3848445639970137    0.3927197395202736 Se
   0.3631856679506682    0.1335463555902681    0.6306322541672463 Se
   0.1330554950980172    0.8708756159318777    0.1304632702606811 Se
   0.1308748005771832    0.1335711407869969    0.8652594825052695 Se
   0.3779928098981620    0.8586349183629451    0.3583152461166625 Se
   0.3912746690462633    0.6050227353707367    0.6232653112256885 Se
   0.6240705863983316    0.8826135339605796    0.1021883714504118 Se
   0.6152221055459084    0.6212840116450999    0.3822616055669797 Se
   0.3735353802424651    0.8918544771206006    0.8895064667301198 Se
   0.3696822276182602    0.6318074304431098    0.1289770041267908 Se
   0.1300431936549732    0.3734220216769299    0.6309890613072668 Se
   0.1363641709208507    0.6321942744687763    0.3684838990022331 Se
   0.3729218398311355    0.3784832881999169    0.8698859594078973 Se
   0.8834389426794674    0.1136335180772770    0.6178393765145713 Se
   0.1164434034238545    0.3831254353095726    0.1162663987606212 Se
   0.1150450616144412    0.1199697141825927    0.3785941538413060 Se
   0.8866356475671663    0.3980042573692218    0.8835244744759206 Se
   0.8772959713408416    0.1265701578468193    0.1356477832229279 Se
   0.6338418382105800    0.8666781212080599    0.6332887599645747 Se
   0.6311003364284570    0.1321636493439077    0.3693701359679122 Se
   0.8646918433139636    0.8760935230757112    0.8620879163984445 Se
   0.8925196776573067    0.6142264219381653    0.1144102047382929 Se
   0.1161016468395963    0.8833233355793819    0.6166982697854324 Se
   0.1129479772789638    0.6128696183772921    0.8901776571540960 Se
   0.8745037730084902    0.8940458511083913    0.3775468446499509 Se
   0.8658801075004462    0.6328371640120546    0.6375884291163423 Se
   0.6434155013143257    0.3657955088632378    0.1262402274752966 Se
   0.6274997605328748    0.6249929325634306    0.8700733801671228 Se
   0.8675817145572579    0.3644451653505812    0.3647386834439967 Se
