Mg7 Sc16 Se32
1.0
  11.1003847944368736    0.0000000000000000    0.0000000000000000
   0.0000000000000000   11.1003847944368736    0.0000000000000000
  -0.0000000000000000   -0.0000000000000000   11.1003847944368736
Mg Sc Se
7 16 32
direct
   0.2646412706425700    0.2525140955170623    0.2612061802573733 Mg
   0.2513106522821714    0.7669866778810340    0.7488148286757333 Mg
   0.4925674074384859    0.5012443528331867    0.0137619833688391 Mg
   0.7655042444761522    0.2549889598320379    0.7529478540667570 Mg
   0.9967258945113101    0.9979748716413458    0.0028886719477804 Mg
   0.7501208333484440    0.7508927552188649    0.2496446408113469 Mg
   0.0117323399899843    0.4842346642970494    0.4948951939165424 Mg
   0.1189439059554491    0.8695319568227546    0.3792055831897468 Sc
   0.3892339932529176    0.1278722673647363    0.8720304908447304 Sc
   0.3788244508221840    0.3779625049068862    0.6307632740755881 Sc
   0.1168157050797538    0.1322615943201401    0.6220316678427011 Sc
   0.1273247901041308    0.3604289724368140    0.8649067360690555 Sc
   0.3749954320593167    0.6250023195942298    0.3750050764534463 Sc
   0.3740956705590056    0.8745795022863914    0.1265190271782205 Sc
   0.1311703570838906    0.6352229562277918    0.1410217142319892 Sc
   0.6367366692995233    0.8729532319855118    0.8850406254676866 Sc
   0.8706229982881066    0.1206416710856300    0.3637299781700426 Sc
   0.8874641283418006    0.3733253132347346    0.1330731183350251 Sc
   0.6344986920758195    0.1346368838323896    0.1245945538496032 Sc
   0.6278805994670892    0.3756365719764795    0.3816604942700051 Sc
   0.8720449898489795    0.6246669235221135    0.8796208517411224 Sc
   0.8816142621118928    0.8779721220297566    0.6079587458974129 Sc
   0.6294699605004158    0.6357195097148839    0.6349604013332563 Sc
   0.3816912538683819    0.1297306786428362    0.1238851280036632 Se
   0.6086146353084411    0.3703385351611497    0.6229859614767244 Se
   0.6106198291936898    0.1150672834603272    0.8759110041849092 Se
   0.3824946462460079    0.3837017173598450    0.3834902408440986 Se
   0.3756018117594545    0.1301715250412294    0.6347830767638015 Se
   0.1411646736253089    0.8664268706267286    0.1318815852762846 Se
   0.1188626342481854    0.1408963553795915    0.8764226422784034 Se
   0.3654265698920264    0.8610157552428858    0.3652716986112150 Se
   0.3872019874519511    0.6063390051967654    0.6073785074676239 Se
   0.6145862003844226    0.8817458123478120    0.1157117308202311 Se
   0.6146304721176334    0.6178778195265792    0.3841116669237585 Se
   0.3931983153935343    0.8859771534917343    0.8791147125165094 Se
   0.3709911260861687    0.6370526037238817    0.1355635899086573 Se
   0.1337564437265375    0.3683463110065712    0.6278365576462696 Se
   0.1333031402292130    0.6254916039126420    0.3799415477865572 Se
   0.3603767038329974    0.3660084648512030    0.8546932080780238 Se
   0.8720431565753015    0.1048217177826463    0.6264954031349548 Se
   0.1139324536586702    0.3943218919647025    0.1322784564680973 Se
   0.1207721888177733    0.1150143436659855    0.3783650776151106 Se
   0.8737237867924864    0.3742540173076530    0.8750440061765538 Se
   0.8672243577513202    0.1357806533089227    0.1384831526140267 Se
   0.6421569462596767    0.8768851535092185    0.6407198251075328 Se
   0.6427702588058498    0.1312084652638671    0.3747343827685317 Se
   0.8763195375382506    0.8547433485203577    0.8760102604692876 Se
   0.8831330632452183    0.6177987826586949    0.1171951732405446 Se
   0.1182310623535473    0.8809419781544068    0.6170773175376180 Se
   0.1216397231699611    0.6256265315133513    0.9009496089157558 Se
   0.8861114465751592    0.8769595593417986    0.3685017758647947 Se
   0.8671361139300096    0.6344198973814191    0.6488688431899691 Se
   0.6326513424480535    0.3678906899959040    0.1310563858489282 Se
   0.6461085983449371    0.6362476548851459    0.8641737774714205 Se
   0.8706890771271579    0.3779009064132581    0.3795887560752546 Se
