Mg7 Sc16 Se32
1.0
  11.1003847944368736    0.0000000000000000    0.0000000000000000
   0.0000000000000000   11.1003847944368736    0.0000000000000000
  -0.0000000000000000   -0.0000000000000000   11.1003847944368736
Mg Sc Se
7 16 32
direct
   0.5031399090581093    0.0002732119995851    0.5004325482995428 Mg
   0.2530567853899856    0.7514456718753889    0.7526066506864099 Mg
   0.5015990043535349    0.5025113597970098    0.9980847539690963 Mg
   0.7508488781412105    0.2523946788914097    0.7473955020298013 Mg
   0.2091414590838481    0.2128625150650199    0.2199928132562826 Mg
   0.7491606703429060    0.7496473598787091    0.2514901867658754 Mg
   0.0018551954175530    0.4982338846354634    0.4984558153346988 Mg
   0.1259208689284924    0.8760784150072225    0.3749454182729539 Sc
   0.3765722065107628    0.1261541753963153    0.8734487916572865 Sc
   0.3721278910215230    0.3748415500677426    0.6262868891146659 Sc
   0.1290251362238930    0.1241927628455079    0.6257367172254984 Sc
   0.1254323173876533    0.3753301169091369    0.8751548652765175 Sc
   0.3730624552145506    0.6262602566891158    0.3755803419008169 Sc
   0.3746696646766891    0.8758230467130528    0.1216952298217625 Sc
   0.1275414225406110    0.6251907801640838    0.1240078388802940 Sc
   0.6228192703290186    0.8765590899938598    0.8759789451019071 Sc
   0.8741519311817022    0.1271832274865297    0.3754735166315704 Sc
   0.8772947230601846    0.3726773298498558    0.1279230005246522 Sc
   0.6238012391860421    0.1256837222435651    0.1252308214104945 Sc
   0.6286533524185728    0.3749010603837610    0.3750787250116222 Sc
   0.8716885672407769    0.6237803719906091    0.8741772807921677 Sc
   0.8749407110258449    0.8742687109427824    0.6243750232126615 Sc
   0.6231283151507589    0.6274550504780118    0.6260160499323906 Sc
   0.3832213384080629    0.1176783382733770    0.1180436520562540 Se
   0.6158606955121984    0.3835455138442507    0.6133799358278421 Se
   0.6164628934654213    0.1168792963229703    0.8832999654398069 Se
   0.3860833136595988    0.3831456311628455    0.3830226826035226 Se
   0.3650736511560100    0.1363003810870425    0.6318917006071036 Se
   0.1328246530519742    0.8663788471986252    0.1353353660966213 Se
   0.1344457929944493    0.1332084026560078    0.8709804983850646 Se
   0.3683997824538277    0.8663442126355089    0.3641449844273246 Se
   0.3826562267881535    0.6171778255921172    0.6168078824212785 Se
   0.6200311207150259    0.8846664845018145    0.1173802980012768 Se
   0.6162556671110215    0.6147615388785124    0.3835355867507371 Se
   0.3826838150811744    0.8852675770900935    0.8848381505097289 Se
   0.3698047908832702    0.6356951877303735    0.1325589812291113 Se
   0.1305715052180927    0.3680354934606915    0.6330309373652987 Se
   0.1327887000663940    0.6333824613340904    0.3664034050712369 Se
   0.3638063130981977    0.3660369574927245    0.8674813224757163 Se
   0.8818700542087479    0.1169868238235046    0.6171644328283604 Se
   0.1167206439260901    0.3827666359724445    0.1168790368462068 Se
   0.1173866002083826    0.1172639711088073    0.3816992442501769 Se
   0.8831863176323547    0.3822801715059055    0.8845377286218916 Se
   0.8692457905630606    0.1362722434059429    0.1328207166260366 Se
   0.6329168320261366    0.8683766643965595    0.6294929179503744 Se
   0.6332006704903275    0.1334806508600473    0.3670004901760348 Se
   0.8649775328745406    0.8656470565654384    0.8645052224118748 Se
   0.8832286414032093    0.6174129796626673    0.1165807866847049 Se
   0.1189670752312663    0.8812774769397101    0.6198908603348419 Se
   0.1172642301525876    0.6174263229035594    0.8821602558380188 Se
   0.8844530394959266    0.8837121427211219    0.3820501916661015 Se
   0.8672049031474799    0.6329112037131975    0.6328066544138226 Se
   0.6359058053782183    0.3688629547367474    0.1319844051395593 Se
   0.6321588090743492    0.6334323870361359    0.8684770720422258 Se
   0.8676687106735524    0.3655083703278126    0.3670814740496140 Se
