Mg7 Sc16 Se32
1.0
  11.1003847944368736    0.0000000000000000    0.0000000000000000
   0.0000000000000000   11.1003847944368736    0.0000000000000000
  -0.0000000000000000   -0.0000000000000000   11.1003847944368736
Mg Sc Se
7 16 32
direct
   0.2718158741267223    0.1905991215621942    0.3169237019353389 Mg
   0.2517622205041657    0.7438192935450655    0.7352621549270490 Mg
   0.4969767425265745    0.4953367358676046    0.0068252164803632 Mg
   0.7385567421539276    0.2458331832636739    0.7499928804218352 Mg
   0.0051200580552079    0.9916254352290622    0.0008982485683164 Mg
   0.7398307492628994    0.7585328244686362    0.2496058102714931 Mg
   0.9953460493709201    0.5050481996063609    0.5064045532565018 Mg
   0.1253338625015529    0.8678149606508369    0.3784048671764184 Sc
   0.3775808746113970    0.1248282137518605    0.8709663921984792 Sc
   0.3645211828015428    0.3813600172602527    0.6213103152032681 Sc
   0.1301463993321327    0.1370346579858592    0.6353885178866699 Sc
   0.1342887200397767    0.3637551464967568    0.8726033454822305 Sc
   0.3782229122379853    0.6238584642819966    0.3697477419643129 Sc
   0.3752326419379994    0.8716752101973992    0.1244862196111750 Sc
   0.1200693635595872    0.6227668227471921    0.1310629490047299 Sc
   0.6307542972570789    0.8741182305031077    0.8729125880872446 Sc
   0.8612693488993238    0.1310062843871332    0.3821262866864172 Sc
   0.8772984466906715    0.3631238214088357    0.1362312637628901 Sc
   0.6310537794847161    0.1232674353446809    0.1153479231217807 Sc
   0.6163885410377151    0.3780501155675096    0.3809300176117775 Sc
   0.8736086785382629    0.6250945240087028    0.8760691687226322 Sc
   0.8776304582094836    0.8857189287739774    0.6229574613589423 Sc
   0.6254986303530137    0.6253694443345035    0.6248332812009628 Sc
   0.3737955407425269    0.1249659579212527    0.1288636789881000 Se
   0.6146804809582049    0.3793931340639298    0.6150784265580026 Se
   0.6227128970985112    0.1184348116264008    0.8845107519593649 Se
   0.3946308680521459    0.3853578617157665    0.3876799529936614 Se
   0.3708764333614534    0.1335378456697035    0.6312167972391580 Se
   0.1294144411555896    0.8678901823438983    0.1287900754741959 Se
   0.1328281643936120    0.1331057988137653    0.8687624955319470 Se
   0.3670425823973945    0.8690788196448106    0.3666917934400898 Se
   0.3801979854319555    0.6095418381199230    0.6308133957989162 Se
   0.6148307190871688    0.8930007304733323    0.1229084717732502 Se
   0.6162001150106304    0.6142804615042577    0.3794337368218152 Se
   0.3844757553601542    0.8686691338703978    0.8917301676985243 Se
   0.3695353765268315    0.6276657789451371    0.1319062286840303 Se
   0.1251029400699436    0.3800728003076835    0.6296587504947574 Se
   0.1292827771935086    0.6273231593507557    0.3542825335983916 Se
   0.3613552627328388    0.3676286967407342    0.8707128071145943 Se
   0.8802316644191084    0.1239559142158165    0.6135184855675527 Se
   0.1164717133441740    0.3907092783579032    0.1165849704366012 Se
   0.1186220160980205    0.1132308678433641    0.3688490506277995 Se
   0.8787615450953404    0.3866991876145088    0.8926333925152581 Se
   0.8788176400885371    0.1449718884208817    0.1345937139238414 Se
   0.6334977793689028    0.8716073672323603    0.6367857511895216 Se
   0.6344222429039195    0.1352467860678735    0.3501422031106343 Se
   0.8588849309765663    0.8754850917155875    0.8619171188659124 Se
   0.8836782113144812    0.6178202148869198    0.1173745529095948 Se
   0.1250292630170338    0.8819302983706652    0.6172112150548160 Se
   0.1125988195896652    0.6260093345841359    0.8831582033631672 Se
   0.8789597720480841    0.8777348794577383    0.3853193865411353 Se
   0.8666866323967577    0.6331411578766101    0.6256723078767139 Se
   0.6360384589390568    0.3671668950577440    0.1234790604279677 Se
   0.6464671988596197    0.6378896866212225    0.8752817526289386 Se
   0.8618889088993332    0.3624372396425840    0.3667721057859770 Se
