Mg7 Sc16 Se32
1.0
  11.1003847944368736    0.0000000000000000    0.0000000000000000
   0.0000000000000000   11.1003847944368736    0.0000000000000000
  -0.0000000000000000   -0.0000000000000000   11.1003847944368736
Mg Sc Se
7 16 32
direct
   0.2496831943687925    0.2499650105608374    0.2500689599192527 Mg
   0.2466197754340814    0.7489654761575432    0.7519810535380502 Mg
   0.5007075333597428    0.5005586960796847    0.9983281943027446 Mg
   0.7496809796442983    0.2511640850472968    0.7502455793271207 Mg
   0.0002330348173787    0.9998799573230511    0.0003116190749011 Mg
   0.7510580192204953    0.7508959239008371    0.2518629313209058 Mg
   0.9993649863112399    0.5010362335240436    0.5011525268260127 Mg
   0.1281317162910120    0.8754489598533411    0.3744602574131122 Sc
   0.3765179527363410    0.1240356718471471    0.8783284552368207 Sc
   0.3758441069315320    0.3739944677674771    0.6228447175334421 Sc
   0.1246707188367099    0.1253308511243375    0.6254145625929243 Sc
   0.1254349491144467    0.3783778990564914    0.8738686139126354 Sc
   0.3757385884501349    0.6250661020692224    0.3768005400673244 Sc
   0.3751107353197537    0.8762208869411646    0.1266159229744529 Sc
   0.1231315000549897    0.6248113795661339    0.1277711688290858 Sc
   0.6266558845172659    0.8772807130723798    0.8744441465116520 Sc
   0.8736676176787924    0.1223260224081925    0.3747058249745904 Sc
   0.8748076629199742    0.3753580259402577    0.1248094268230737 Sc
   0.6232874868498102    0.1253025421490477    0.1251052899432465 Sc
   0.6252402834397037    0.3746425710208407    0.3744061824587301 Sc
   0.8786890073483453    0.6251000588663020    0.8759965708509715 Sc
   0.8779365584897343    0.8753694021246973    0.6229275326159837 Sc
   0.6251120188718007    0.6234443656259918    0.6242098465933096 Sc
   0.3838722469124882    0.1158899079589073    0.1191050707367421 Se
   0.6177996844440209    0.3839514697956926    0.6174408772032689 Se
   0.6213880072763363    0.1180061263583251    0.8824740881494464 Se
   0.3833951881063545    0.3805537234914093    0.3837085808255432 Se
   0.3659237183564409    0.1318615376478415    0.6355804107421231 Se
   0.1320098361670130    0.8676232787487183    0.1344576697587339 Se
   0.1311656075480510    0.1310517278222781    0.8683108970592996 Se
   0.3671507681613405    0.8688574790457690    0.3677373838350549 Se
   0.3804853416146972    0.6181199307211557    0.6185758537680617 Se
   0.6162445970168757    0.8796990715325839    0.1160218811069459 Se
   0.6175290313950343    0.6182711051228437    0.3819092307417585 Se
   0.3840106095942653    0.8810878590717639    0.8837326324195596 Se
   0.3668406174340166    0.6352880971390602    0.1309687951114978 Se
   0.1318760482349288    0.3671752644373794    0.6313520028514599 Se
   0.1332477804925399    0.6325436308943015    0.3677157048347920 Se
   0.3640944466150395    0.3650671113046671    0.8683794758194530 Se
   0.8830052764531533    0.1171789456863366    0.6170411141597509 Se
   0.1179118970714847    0.3793183545615478    0.1186475939641142 Se
   0.1182726134436088    0.1158836692643024    0.3820672966222584 Se
   0.8859508432323360    0.3820074888897475    0.8838762036800225 Se
   0.8713104169713199    0.1328734577504825    0.1333141819827638 Se
   0.6343785942554269    0.8655287304904851    0.6345525970714458 Se
   0.6325943950082490    0.1313894724071380    0.3678717959138015 Se
   0.8659894432059493    0.8675474171331294    0.8678411217133701 Se
   0.8807018082409590    0.6181429029984625    0.1185222102785514 Se
   0.1175533057236725    0.8829032435433724    0.6174085778408483 Se
   0.1155539901772009    0.6181702799318372    0.8839913515513526 Se
   0.8847384830677713    0.8801189038642558    0.3840740236237572 Se
   0.8668552907158452    0.6327381977417968    0.6326785428068578 Se
   0.6298535003394925    0.3700875428930165    0.1342904020271514 Se
   0.6291389184093926    0.6323016819427929    0.8650716650014251 Se
   0.8671637653149645    0.3684513287805391    0.3685942728826520 Se
