Mg7 Sc16 Se32
1.0
  11.1003847944368736    0.0000000000000000    0.0000000000000000
   0.0000000000000000   11.1003847944368736    0.0000000000000000
  -0.0000000000000000   -0.0000000000000000   11.1003847944368736
Mg Sc Se
7 16 32
direct
   0.4974993934772169    0.9967296505710109    0.5023299428068631 Mg
   0.2603505604862847    0.7570508437260486    0.7523568708640157 Mg
   0.4912139727583389    0.5060247973734576    0.0034594189830439 Mg
   0.7491759064616654    0.2487764932893944    0.7486420517083463 Mg
   0.2502233589877818    0.2508330741370796    0.2495129139114819 Mg
   0.7495006215462173    0.7499316842725183    0.2497952065672337 Mg
   0.9950234825510027    0.4985212655639305    0.5047576160189500 Mg
   0.1236673006578751    0.8767465823453336    0.3747497748044817 Sc
   0.3770206594985418    0.1235572652917497    0.8698833666997509 Sc
   0.3809480239433798    0.3661995503737287    0.6167325815401972 Sc
   0.1187133720152320    0.1251814930437929    0.6238367950896154 Sc
   0.1223353581504037    0.3784154262019261    0.8817656875468797 Sc
   0.3726001709116299    0.6223785339029545    0.3863053225309004 Sc
   0.3696807610519669    0.8780864272638877    0.1247702627715472 Sc
   0.1286642101362781    0.6266130933077981    0.1203719812906855 Sc
   0.6267887582355400    0.8782104379024692    0.8719001462088638 Sc
   0.8795528058208818    0.1245336661740409    0.3731317366378902 Sc
   0.8762672519324128    0.3747964406111997    0.1265656151338227 Sc
   0.6247494356472832    0.1241557197612452    0.1234602346712329 Sc
   0.6240976755849817    0.3795346167569354    0.3716238554868053 Sc
   0.8622285427842525    0.6247620009211549    0.8699764792081257 Sc
   0.8768559754972149    0.8798218467099275    0.6262217289927554 Sc
   0.6242469182063636    0.6235136660124162    0.6318688248973040 Sc
   0.3797174193366945    0.1248613224189158    0.1080118750370444 Se
   0.6179558495804370    0.3863203500524692    0.6181686687299809 Se
   0.6202291979197845    0.1175508140317301    0.8794243877879119 Se
   0.3851252479832138    0.3807067045080845    0.3874688534154656 Se
   0.3733582453390684    0.1352780723507318    0.6359118764832745 Se
   0.1288666344783346    0.8691513838834186    0.1365226363173888 Se
   0.1227272952240527    0.1395394207816968    0.8708176552599236 Se
   0.3773047964582865    0.8746275753995936    0.3688220530710474 Se
   0.3810519959246539    0.6181872898484362    0.6196478241783987 Se
   0.6174731378513664    0.8885960225498948    0.1156858207245052 Se
   0.6164319771478639    0.6114099838219517    0.3703075840653266 Se
   0.3911475580915119    0.8722013982303042    0.8813759225462828 Se
   0.3639022746694808    0.6303392468899618    0.1366515651803708 Se
   0.1267772679426598    0.3691228547828614    0.6336859357690791 Se
   0.1326823739464145    0.6320405023121525    0.3673414694676532 Se
   0.3696580985155551    0.3715777592314091    0.8637873587981880 Se
   0.8827352087181243    0.1292934455718126    0.6157972621335477 Se
   0.1142566319370441    0.3823370221632857    0.1103353376862691 Se
   0.1244997017376533    0.1163615761645417    0.3758919012706908 Se
   0.8864534391399082    0.3804809554780160    0.8840620146447367 Se
   0.8612009424228233    0.1395694007527931    0.1390725528370869 Se
   0.6370026227511036    0.8658565456853636    0.6350111515645347 Se
   0.6281642504683289    0.1309218994395494    0.3594951229021100 Se
   0.8669385422292132    0.8656143086800132    0.8682464089679648 Se
   0.8856636861531004    0.6189266855070088    0.1127264817580528 Se
   0.1170249230033857    0.8830585553694714    0.6176819854559097 Se
   0.1253100177586087    0.6093228515815564    0.8889047018155719 Se
   0.8822462781682076    0.8733854958706406    0.3736196353300874 Se
   0.8649821937930039    0.6412045448089069    0.6420609493859292 Se
   0.6354107077485933    0.3710205296921185    0.1259089915494037 Se
   0.6249083210548970    0.6260084358819031    0.8742272761832705 Se
   0.8796692800136595    0.3685746077414571    0.3671438289968956 Se
