Mg7 Sc16 Se32
1.0
  11.1003847944368736    0.0000000000000000    0.0000000000000000
   0.0000000000000000   11.1003847944368736    0.0000000000000000
  -0.0000000000000000   -0.0000000000000000   11.1003847944368736
Mg Sc Se
7 16 32
direct
   0.5003330758167054    0.0006570792547168    0.5010852007187014 Mg
   0.2501166979831031    0.7502338416678430    0.7495745618488471 Mg
   0.3586407432930493    0.4066268770014741    0.0776842137687841 Mg
   0.7409773414070937    0.2503085662650841    0.7477584116334384 Mg
   0.9986177149417895    0.9977949174937167    0.9998457568143687 Mg
   0.7489311981857057    0.7492171471842396    0.2467683759036091 Mg
   0.9998868643198472    0.5003023178249907    0.4998644958726176 Mg
   0.1249451881211155    0.8728576940851075    0.3708414201386988 Sc
   0.3727699289548096    0.1254513610826797    0.8749597026869892 Sc
   0.3656044435168839    0.3793226726331645    0.6274890038973450 Sc
   0.1239851280922918    0.1260249035963649    0.6261023974380611 Sc
   0.1238177743107417    0.3815055853099842    0.8776018676246626 Sc
   0.3818544500751168    0.6255553880697390    0.3728161376306215 Sc
   0.3748962745649948    0.8649510934963611    0.1247722218698193 Sc
   0.1264433482306872    0.6242401122809929    0.1236541139070056 Sc
   0.6278675879267597    0.8726481837842368    0.8761091550973381 Sc
   0.8764033650300912    0.1288226902249388    0.3710863729865526 Sc
   0.8771167232889907    0.3748593859023239    0.1321132198559268 Sc
   0.6260391657783941    0.1245633871252528    0.1241657965412652 Sc
   0.6258952786939403    0.3765362461837532    0.3735871604410887 Sc
   0.8747639740165620    0.6263159629438301    0.8724095587970626 Sc
   0.8665061136381148    0.8736120087743873    0.6197545635475051 Sc
   0.6256069729134101    0.6238684892374757    0.6282274284645589 Sc
   0.3841273411463743    0.1152169277986064    0.1158449308165303 Se
   0.6170552268192424    0.3800745402987386    0.6181292199517848 Se
   0.6202578546076427    0.1166897690770808    0.8800905045245287 Se
   0.3866246649724909    0.3833018804090181    0.3729130794984009 Se
   0.3673136351241061    0.1351358357893967    0.6308514692469042 Se
   0.1326715001382456    0.8673046537800090    0.1328684008316765 Se
   0.1252246584157307    0.1312601397000873    0.8628666472161254 Se
   0.3652257015498566    0.8656788226442499    0.3654760317511569 Se
   0.3805119373329903    0.6147123159931129    0.6156449480180118 Se
   0.6174474845501072    0.8836633560122228    0.1155202299834583 Se
   0.6173481477698306    0.6100249838473119    0.3831663717519501 Se
   0.3779191027125101    0.8756472480939645    0.8793883376736811 Se
   0.3671073237965134    0.6344577085852150    0.1313320407587805 Se
   0.1318359073385721    0.3630675551663486    0.6270431770974743 Se
   0.1354097722081363    0.6362606315758810    0.3632982768831997 Se
   0.3673662709155849    0.3678353577141064    0.8615228869067447 Se
   0.8748150763846482    0.1138962855195699    0.6223562470422835 Se
   0.1229779405345672    0.3781144006413060    0.1103365044937840 Se
   0.1174420563351999    0.1148213882726969    0.3783454435420103 Se
   0.8810268527143708    0.3875894229531511    0.8819049545537955 Se
   0.8670053824360179    0.1325174677552368    0.1334064951790586 Se
   0.6374923565762155    0.8698670397022835    0.6258641368009212 Se
   0.6395698168573367    0.1305684940273340    0.3730397968323546 Se
   0.8700336019765738    0.8690477429136814    0.8654515491006418 Se
   0.8872248442735471    0.6226476724709968    0.1176229169937083 Se
   0.1170218972569648    0.8754106683948414    0.6181220185887740 Se
   0.1144705515370809    0.6091187625740950    0.8878232441694308 Se
   0.8901675762227144    0.8900359178526813    0.3862379945667254 Se
   0.8702663760484639    0.6327124297049792    0.6355478692013727 Se
   0.6332217451389032    0.3658221955801636    0.1349259121565605 Se
   0.6318788803823789    0.6317151849410133    0.8673072738892934 Se
   0.8721734977683498    0.3685714948312950    0.3687945615100312 Se
