Mg7 Sc16 Se32
1.0
  11.1003847944368736    0.0000000000000000    0.0000000000000000
   0.0000000000000000   11.1003847944368736    0.0000000000000000
  -0.0000000000000000   -0.0000000000000000   11.1003847944368736
Mg Sc Se
7 16 32
direct
   0.4990393173189868    0.0010153113848116    0.5002636155485695 Mg
   0.1818263639220728    0.2089974729346908    0.1537305330424187 Mg
   0.5011581941882365    0.5023358792293059    0.0016624475555227 Mg
   0.7510078362709622    0.2534751330109806    0.7509787252048177 Mg
   0.9995020267598976    0.0012525561649516    0.0011829081162469 Mg
   0.7507272430770305    0.7484964332218221    0.2510259080058684 Mg
   0.9992134062138310    0.4996415587189900    0.4999990281215024 Mg
   0.1273651133100583    0.8738100730466902    0.3749734554912488 Sc
   0.3754198224810304    0.1229886295319700    0.8759019814846249 Sc
   0.3728587255327009    0.3760351219987449    0.6270877498226760 Sc
   0.1243987437014442    0.1246997666647357    0.6254660036385087 Sc
   0.1241105337618676    0.3771982229605113    0.8740674858375642 Sc
   0.3741207138658922    0.6248211068931000    0.3775611143371134 Sc
   0.3749666265746692    0.8753355973714169    0.1254025664659857 Sc
   0.1265298382186189    0.6265523162600231    0.1278487601982326 Sc
   0.6258751525306280    0.8783486204407583    0.8759958196039471 Sc
   0.8731614242600674    0.1226233499266937    0.3734688398599008 Sc
   0.8732373383783831    0.3739250326108046    0.1268659627430736 Sc
   0.6250577892506665    0.1266529562028272    0.1240249983100184 Sc
   0.6261882213920498    0.3745253075559077    0.3725657808730660 Sc
   0.8728599495855426    0.6239233176732445    0.8729882715094338 Sc
   0.8745365584189775    0.8753469766843327    0.6242549352864272 Sc
   0.6259385668512908    0.6243491477804747    0.6246422871108867 Sc
   0.3835313896913616    0.1146237197623011    0.1137283673667401 Se
   0.6170359853954807    0.3828929342299126    0.6166806681990666 Se
   0.6172212487667486    0.1169051744053422    0.8828818185849236 Se
   0.3832573181377694    0.3833342174216355    0.3852814250845458 Se
   0.3667762394603853    0.1321143484008103    0.6323802041236041 Se
   0.1334580294504965    0.8669226860770235    0.1331346322348462 Se
   0.1329453676792604    0.1326855241883769    0.8671466969925120 Se
   0.3696238894257699    0.8688349335776043    0.3678102739477546 Se
   0.3803652758014162    0.6166914378469625    0.6200986716689437 Se
   0.6163165424567253    0.8837272632756038    0.1180271557122301 Se
   0.6184035571351114    0.6183851103236069    0.3805784997864461 Se
   0.3798410265271147    0.8819901421033575    0.8814484996674623 Se
   0.3684338549283120    0.6323960995082993    0.1361163029793621 Se
   0.1351995984011924    0.3671373492692048    0.6323766168860542 Se
   0.1331148754359864    0.6339138113443953    0.3688868296341002 Se
   0.3654011390571497    0.3649807082008206    0.8698624348255815 Se
   0.8816343775116817    0.1173070758941088    0.6182413942533042 Se
   0.1199713912481711    0.3832910551622967    0.1179212030494009 Se
   0.1170830474061638    0.1163638048219927    0.3843218886875044 Se
   0.8813878451278507    0.3827678320729323    0.8866813090774436 Se
   0.8687502161246317    0.1349576786340963    0.1332566614329552 Se
   0.6336384351356944    0.8669732093177905    0.6324928965335528 Se
   0.6328888159951507    0.1328167481496940    0.3657079797246868 Se
   0.8661360610263572    0.8682470751644770    0.8672694549525800 Se
   0.8830606762080431    0.6182645559081466    0.1179411321086535 Se
   0.1178027510144843    0.8853811086431411    0.6139921976722195 Se
   0.1168516554266745    0.6185428145400774    0.8822959430403392 Se
   0.8841300227890193    0.8787100387739981    0.3834214618453510 Se
   0.8666070385337967    0.6338594009132851    0.6323196508861259 Se
   0.6333658582560321    0.3679970806224194    0.1327993306628985 Se
   0.6310816908303059    0.6357884980220448    0.8668639206417429 Se
   0.8704359401306411    0.3663275857193853    0.3656050415574522 Se
