Mg7 Sc16 Se32
1.0
  11.1003847944368736    0.0000000000000000    0.0000000000000000
   0.0000000000000000   11.1003847944368736    0.0000000000000000
  -0.0000000000000000   -0.0000000000000000   11.1003847944368736
Mg Sc Se
7 16 32
direct
   0.4958071929603642    0.9997783303728208    0.4968683621098723 Mg
   0.2608684729775672    0.7543679301481964    0.7455466488900282 Mg
   0.5003495974049625    0.5011985806250453    0.9966986098638897 Mg
   0.7580318203381597    0.2319503897786616    0.7511525653940299 Mg
   0.1876375690789665    0.1574114074656404    0.1783085564523205 Mg
   0.7452181216035192    0.7602976379537860    0.2448133804308405 Mg
   0.0118093350824195    0.4838258720578992    0.5138842417567699 Mg
   0.1252355221015072    0.8748454868454678    0.3735695984991516 Sc
   0.3752330502586357    0.1248287814474971    0.8749553977885980 Sc
   0.3631067626171239    0.3716848455071601    0.6194350263294389 Sc
   0.1092579041905370    0.1117458128228559    0.6347475354420269 Sc
   0.1397356158298185    0.3856432839688312    0.8771185761747785 Sc
   0.3705903108361623    0.6330240052307980    0.3906814694903094 Sc
   0.3791601656384083    0.8852816608943783    0.1280437198296420 Sc
   0.1285000007633286    0.6389923868349516    0.1282293793558752 Sc
   0.6397343718906870    0.8757837677236381    0.8913213702026828 Sc
   0.8919663852858581    0.1083829424765478    0.3693486768606873 Sc
   0.8682671446750986    0.3857458378787100    0.1252776255458419 Sc
   0.6249971406043485    0.1250254375416226    0.1250016675489082 Sc
   0.6457755292043775    0.3621884901876047    0.3740637693892375 Sc
   0.8904019315924318    0.6236321322660668    0.8808827064851023 Sc
   0.8615409085925583    0.8830498548522944    0.6199459126574892 Sc
   0.6223147663009797    0.6126998979049689    0.6324832324024104 Sc
   0.3809531983768317    0.1158673856618432    0.1232845684533972 Se
   0.6312521081572551    0.3734616240362013    0.6274352570870831 Se
   0.6205519530829207    0.1211111898973680    0.8824853987374401 Se
   0.3815861333064900    0.3731686439598820    0.3721835091000759 Se
   0.3676224886909367    0.1342317732307891    0.6242464617100821 Se
   0.1517559256510311    0.8603857126864352    0.1488860603137425 Se
   0.1368727705367484    0.1303826843210666    0.8718199403625657 Se
   0.3540665645504149    0.8539729303667278    0.3803167772029247 Se
   0.3829620617941334    0.6177377538109020    0.6161438057127943 Se
   0.6207442257271821    0.8890767462733353    0.0984169637075616 Se
   0.5993543089918300    0.6149487077606732    0.3926614184467274 Se
   0.3840157030332443    0.8772950037237700    0.8850313809240520 Se
   0.3574028562518627    0.6229680063438552    0.1320253321923980 Se
   0.1303761850326005    0.3682706979072978    0.6330673560855082 Se
   0.1367247649023166    0.6313174429362381    0.3677266312143308 Se
   0.3775707353289588    0.3615432386565735    0.8668190398929924 Se
   0.8628644951172161    0.1084652120892615    0.6072534723331794 Se
   0.1011980776534985    0.3777566942675435    0.1166150119549931 Se
   0.1252277501917862    0.1045144987670032    0.3657781312672289 Se
   0.8849232210034826    0.3801053404880227    0.8835370156892711 Se
   0.8513807664913490    0.1329064199066909    0.1362436523026233 Se
   0.6201523464124624    0.8667821605670654    0.6559132505207219 Se
   0.6460303176753690    0.1344809253215611    0.3551836685268296 Se
   0.8572996392955500    0.8670598708632907    0.8478439307202719 Se
   0.8942217931857265    0.6171975761142220    0.1040170752729157 Se
   0.1237004979100464    0.8963033540528261    0.6185264346995367 Se
   0.1047112493298553    0.6297617948817426    0.8788483658664713 Se
   0.8830182468782043    0.8828714414537849    0.3827776146465609 Se
   0.8663469478272922    0.6340893139986971    0.6301772805455385 Se
   0.6264212952046059    0.3767119021402456    0.1264867944283287 Se
   0.6165160176906176    0.6226085380697827    0.8568556196905394 Se
   0.8759509666291386    0.3765989651520416    0.3528126441709757 Se
