Mg7 Sc16 Se32
1.0
  11.1003847944368736    0.0000000000000000    0.0000000000000000
   0.0000000000000000   11.1003847944368736    0.0000000000000000
  -0.0000000000000000   -0.0000000000000000   11.1003847944368736
Mg Sc Se
7 16 32
direct
   0.4880098234884686    0.0010725193105664    0.4948718904421521 Mg
   0.2384085646912728    0.7637489085086662    0.7349797704014132 Mg
   0.3726569331551259    0.4052938173836118    0.0791315615245466 Mg
   0.7638806336055124    0.2659669537540210    0.7575619508064142 Mg
   0.9924461137920757    0.0013656979403633    0.9801233081195903 Mg
   0.7611668935740703    0.7372710283131283    0.2426912889895191 Mg
   0.0033382749940434    0.4967469637366990    0.5011112363785249 Mg
   0.1171734935878831    0.8903003506765798    0.3887108935369983 Sc
   0.3764747290073766    0.1254011801312078    0.8759506069799976 Sc
   0.3833930593026839    0.3800547695986232    0.6150638323186028 Sc
   0.1272379437561804    0.1138613125425949    0.6289123167456502 Sc
   0.1121274777887135    0.3768078932948065    0.8587939062569208 Sc
   0.3769862182887794    0.6248103453977658    0.3765000587423934 Sc
   0.3740396218971106    0.8721524629825969    0.1306731756522882 Sc
   0.1228981441606767    0.6312422924890301    0.1218370591542447 Sc
   0.6312625778779540    0.8745812102213687    0.8572170134888024 Sc
   0.8773612364480915    0.1259576265738519    0.3746064961482985 Sc
   0.8740265146306623    0.3749203753179223    0.1267158227944673 Sc
   0.6301450575294150    0.1296525894554683    0.1172845767177557 Sc
   0.6312704255975158    0.3680285522171321    0.3783814472377810 Sc
   0.8685318065818149    0.6176395082055868    0.8597794813268538 Sc
   0.8754747113543846    0.8636003951341978    0.6366094171369135 Sc
   0.6280582778184403    0.6279396798455087    0.6201130861035011 Sc
   0.3902258122579988    0.1064206347913259    0.1184052709590276 Se
   0.6231286466850562    0.3850530284610865    0.6122829060880751 Se
   0.6220013580706095    0.1105376269596994    0.8917270950773606 Se
   0.3804701092238763    0.3883641373786761    0.3899731010248041 Se
   0.3628694141698212    0.1295735823543012    0.6273832944326518 Se
   0.1313903426294741    0.8719484955858953    0.1335387182315931 Se
   0.1475634224954170    0.1482532918885937    0.8598162520819718 Se
   0.3707353846296289    0.8546354936759769    0.3658322259962580 Se
   0.3822590976658566    0.6204075561794821    0.6152973301097034 Se
   0.6167067786343747    0.8772251574480160    0.1139691856366245 Se
   0.6181994874495379    0.6133637528196189    0.3812604636433554 Se
   0.3743563887512356    0.8779507960771769    0.8859441544200967 Se
   0.3537820946600677    0.6239312992829654    0.1392422647248251 Se
   0.1560002360809827    0.3635139809067564    0.6287882541429854 Se
   0.1358901400494308    0.6353479860954057    0.3650727820802880 Se
   0.3766078545392353    0.3554928921989318    0.8808317409671302 Se
   0.8982876764512268    0.1219988050550223    0.6219029788126605 Se
   0.1063627625744947    0.3745875113562553    0.1349432317838646 Se
   0.1112044922980211    0.1195110966739773    0.3912593584198607 Se
   0.8831608499476358    0.3830481745415206    0.8830663729960124 Se
   0.8538297763180424    0.1417549990659698    0.1216038837517578 Se
   0.6469114172254241    0.8736055411862390    0.6231171500117687 Se
   0.6229329279746177    0.1424555613793375    0.3774868686916498 Se
   0.8600405146768819    0.8637818454955015    0.8696752612963902 Se
   0.8717607185351811    0.6295428737014885    0.1093294068609760 Se
   0.1274563879731005    0.8756543374552690    0.6095352816087202 Se
   0.1272268312110604    0.6320787421793399    0.8824858348015534 Se
   0.8879642635622952    0.8893220868034598    0.3771071555497415 Se
   0.8559333020257339    0.6352304546771702    0.6420326433150597 Se
   0.6503274839060303    0.3757857912771319    0.1191990701162432 Se
   0.6300656800195076    0.6331970313548662    0.8694926025954561 Se
   0.8599318455625409    0.3540972182236585    0.3592746503769591 Se
