Mg7 Sc16 Se32
1.0
  11.1003847944368736    0.0000000000000000    0.0000000000000000
   0.0000000000000000   11.1003847944368736    0.0000000000000000
  -0.0000000000000000   -0.0000000000000000   11.1003847944368736
Mg Sc Se
7 16 32
direct
   0.5020806715213300    0.0050609960311635    0.5021252918700285 Mg
   0.2469914412236904    0.7544488869659013    0.7455512967477663 Mg
   0.4946287776865116    0.5038615055799175    0.9990382099040959 Mg
   0.7544147616798351    0.2515173277856664    0.7521559296531000 Mg
   0.9993887832998934    0.0006645282366159    0.0009103403220084 Mg
   0.7476477451246416    0.7454879451452678    0.2444976029716682 Mg
   0.0755433726161775    0.4358611986473340    0.4251392969166073 Mg
   0.1243965098514743    0.8741845842476287    0.3742992950660460 Sc
   0.3758918956099098    0.1313170394588079    0.8776373821392029 Sc
   0.3752732219047865    0.3758834444917018    0.6244653805444749 Sc
   0.1245404328607046    0.1263421258593334    0.6208770760398165 Sc
   0.1240180359090127    0.3714117702696590    0.8746749246124942 Sc
   0.3748515378871442    0.6242990717329922    0.3759521143113371 Sc
   0.3750667303308466    0.8747566431843257    0.1249833426432997 Sc
   0.1256911594029368    0.6256814815683054    0.1220823779777514 Sc
   0.6305523894562850    0.8734222843319634    0.8712563459324664 Sc
   0.8746048932560342    0.1249749971593108    0.3751936258899945 Sc
   0.8730400095342943    0.3753595534815540    0.1253475072109797 Sc
   0.6239404284478710    0.1251427839014676    0.1254038210239045 Sc
   0.6243603180809533    0.3749897584058224    0.3756521452248880 Sc
   0.8749208682269977    0.6219290494754566    0.8771141315508817 Sc
   0.8768222559218707    0.8766625620710615    0.6223171700498051 Sc
   0.6255406676793170    0.6248718368796107    0.6253370687972631 Sc
   0.3797116641963005    0.1164380136394215    0.1186687235178194 Se
   0.6115206975218531    0.3870800305182981    0.6161807477633560 Se
   0.6162805453840449    0.1159284967654242    0.8814483296520854 Se
   0.3835923476440556    0.3834345280679953    0.3830407949241933 Se
   0.3685154559940527    0.1343552061788926    0.6295569606593332 Se
   0.1345493099699918    0.8691197094751901    0.1315502483122058 Se
   0.1333799669976762    0.1374039996514939    0.8663387955969419 Se
   0.3662178068958596    0.8683772563518173    0.3653165863739701 Se
   0.3846391381944291    0.6172482949114086    0.6126393711675968 Se
   0.6145030322553261    0.8838661241799943    0.1185224389393682 Se
   0.6161493462042391    0.6188988955079764    0.3811695183983528 Se
   0.3886818431986389    0.8823066645807023    0.8878054356860147 Se
   0.3695889826948066    0.6272413196713352    0.1355597813025308 Se
   0.1337202636531990    0.3678232495750496    0.6314747271017621 Se
   0.1292793745695131    0.6294441112753290    0.3620688950495791 Se
   0.3662766228391890    0.3670539289441015    0.8661144521383966 Se
   0.8864592220856563    0.1115960194678121    0.6193795294344419 Se
   0.1194658664927624    0.3810484714608382    0.1122438084336497 Se
   0.1185036943602086    0.1176600889336715    0.3835992975941226 Se
   0.8830548510388646    0.3829678775857625    0.8828671639282671 Se
   0.8710368214701777    0.1383317806129967    0.1292753919564571 Se
   0.6385870482902067    0.8637906454875572    0.6336249650691015 Se
   0.6355392944265046    0.1343527848547422    0.3643901442739807 Se
   0.8696352240125566    0.8716294639526572    0.8695630626060089 Se
   0.8829955504544523    0.6162060895744264    0.1179692723857887 Se
   0.1188480035593400    0.8845578514802316    0.6181463430256888 Se
   0.1143435776587833    0.6173450427711007    0.8875251351909499 Se
   0.8788738142173853    0.8798671565351994    0.3818321103534838 Se
   0.8606446440311368    0.6339270241829803    0.6344694138370635 Se
   0.6291998466851153    0.3697053842282603    0.1360506077344295 Se
   0.6360754187394937    0.6332549102847924    0.8720449275062890 Se
   0.8627954156469874    0.3692090516134788    0.3661684375730067 Se
