Mg7 Sc16 Se32
1.0
  11.1003847944368736    0.0000000000000000    0.0000000000000000
   0.0000000000000000   11.1003847944368736    0.0000000000000000
  -0.0000000000000000   -0.0000000000000000   11.1003847944368736
Mg Sc Se
7 16 32
direct
   0.5012767336493610    0.9953370295711447    0.5040124764212223 Mg
   0.2677164700890726    0.7511408225167950    0.7374567238011089 Mg
   0.5196608270478470    0.4968268215008901    0.0035125539937179 Mg
   0.7338247941273952    0.2348215087759526    0.7532997167128326 Mg
   0.9832168045841687    0.9959339369303000    0.0155077128819647 Mg
   0.7466426403961789    0.7714918715189742    0.2558778519890995 Mg
   0.9944776049581869    0.4963037068233540    0.4981587629918464 Mg
   0.1153348050512152    0.8706679507115244    0.3687511373919133 Sc
   0.3647496488091723    0.1329738300868779    0.8720100970385573 Sc
   0.3692305466640957    0.3589721927120012    0.6045744610698066 Sc
   0.1206892791281428    0.1233330461180333    0.6357036731266408 Sc
   0.1280728995663485    0.3932160206741266    0.8867701991922785 Sc
   0.3778189839817790    0.6303207807690053    0.3758481942281772 Sc
   0.3754547391258508    0.8688904004067036    0.1167451382015436 Sc
   0.1117787301486619    0.6424803105731212    0.1343403893642264 Sc
   0.6064710355585753    0.8705065889389560    0.8912222609031845 Sc
   0.8750755695196142    0.1253047353957258    0.3749920064397386 Sc
   0.8749202488653720    0.3768882044120083    0.1450272896093053 Sc
   0.6331582631084233    0.1292926569022403    0.1160796588617406 Sc
   0.6245745532930482    0.3748865571116643    0.3748921481307163 Sc
   0.8825221113786054    0.6258596156199733    0.8662900532207797 Sc
   0.8719526681079760    0.8806292154093542    0.6144597924003340 Sc
   0.6241846668644186    0.6249477206406255    0.6248802354787588 Sc
   0.3802174127408414    0.1174394847996958    0.1382752237106342 Se
   0.6182842771113377    0.3885182664414029    0.6232841874588535 Se
   0.6104544389565197    0.1270412809646476    0.8865450878873904 Se
   0.3793712226459596    0.3762586427479724    0.3999443192460317 Se
   0.3674202097020265    0.1308807630531863    0.6342638628853685 Se
   0.1377489931606876    0.8632771478748471    0.1235649752335569 Se
   0.1297289247347276    0.1335027771899505    0.8622470887875883 Se
   0.3656143788631083    0.8667834020337614    0.3654922777082656 Se
   0.3789267482054052    0.6152470471053265    0.6120727993752112 Se
   0.6140241550267747    0.8814744137440834    0.1225222133082030 Se
   0.6084690534628510    0.6182552387088089    0.3625650003027340 Se
   0.3848812072786052    0.8835761775184405    0.8839507316239983 Se
   0.3590431981034449    0.6445398011945467    0.1358264492613189 Se
   0.1338386264702442    0.3558720649722224    0.6377640292413107 Se
   0.1289061909622996    0.6529766292650881    0.3721543792146335 Se
   0.3592643750285356    0.3545676157447543    0.8577183356475641 Se
   0.8801512765836397    0.1176857578429598    0.6188941270602050 Se
   0.1188377416696314    0.3850583359325384    0.1192263993051727 Se
   0.1231527035203545    0.1087535699783642    0.3807771629649532 Se
   0.8849098804848395    0.3795488235324528    0.9023712635549314 Se
   0.8732039901253631    0.1343271591687427    0.1491410889567241 Se
   0.6481576957159093    0.8715701905673295    0.6348564270583099 Se
   0.6487712518769139    0.1296612384098148    0.3797040523153034 Se
   0.8865599424132145    0.8632710093643760    0.8657865221593257 Se
   0.8810262135491065    0.6199569645868029    0.1191277619433466 Se
   0.1096229665506024    0.8689609819001879    0.6050332030553663 Se
   0.1187088607793753    0.6136453536142081    0.8822279334286728 Se
   0.8991662310085209    0.8871066847090506    0.3745386462119311 Se
   0.8703602122714713    0.6477680299743893    0.6546114004473087 Se
   0.6321080551191187    0.3726791437439141    0.1334273133650285 Se
   0.6354784551040080    0.6395696033860291    0.8737949886387069 Se
   0.8644863380370891    0.3766118524823834    0.3774305382546746 Se
