Mg7 Sc16 Se32
1.0
  11.1003847944368736    0.0000000000000000    0.0000000000000000
   0.0000000000000000   11.1003847944368736    0.0000000000000000
  -0.0000000000000000   -0.0000000000000000   11.1003847944368736
Mg Sc Se
7 16 32
direct
   0.1775920070078378    0.2534661420579929    0.2407946014144647 Mg
   0.2495686304187460    0.7596958315563037    0.7441686086034828 Mg
   0.5017245345299490    0.4988464603838227    0.0006467193702318 Mg
   0.7486526061350762    0.2411885224246163    0.7540405091963118 Mg
   0.0000585515013017    0.9999983410223927    0.0003080618875328 Mg
   0.7393779077329107    0.7509297986335479    0.2628493137707142 Mg
   0.0000389732630417    0.4904148263626181    0.5048561885100702 Mg
   0.1259696000429524    0.8761311197559896    0.3757712525008340 Sc
   0.3750867065689353    0.1254039339977613    0.8750117951467298 Sc
   0.3858918802371824    0.3710078423139253    0.6138972316445277 Sc
   0.1251810710108870    0.1359924845767858    0.6298787081918497 Sc
   0.1136070126711375    0.3835801987354834    0.8657717252607088 Sc
   0.3812667589847470    0.6271304563425908    0.3846232567753671 Sc
   0.3788949586741867    0.8747574249259419    0.1276362478927113 Sc
   0.1261885474903905    0.6277237610527129    0.1348465547035267 Sc
   0.6244798544439729    0.8750678821053679    0.8749045920545765 Sc
   0.8743911119385183    0.1242585720658278    0.3727702452043722 Sc
   0.8759333212935608    0.3772751636232342    0.1227954331986342 Sc
   0.6251113268353278    0.1245444969204605    0.1238489953940033 Sc
   0.6241538825618452    0.3646701168882665    0.3704673003033641 Sc
   0.8744364694546898    0.6237175556478218    0.8730314989485046 Sc
   0.8656910422338931    0.8787713566975132    0.6325658376921452 Sc
   0.6216524459961050    0.6246284995277473    0.6250990846146590 Sc
   0.3711348004414388    0.1179537681072127    0.1160921603655734 Se
   0.6159561686294464    0.3826655994118356    0.6180845532703788 Se
   0.6066619684048103    0.1204783571843427    0.8841718004442010 Se
   0.3918244807783685    0.3835185796695749    0.3741744445568438 Se
   0.3655178479131838    0.1319749249409820    0.6179877204562344 Se
   0.1447933185216280    0.8709411607634532    0.1264351129192953 Se
   0.1373442365082028    0.1414313022126532    0.8636686820489277 Se
   0.3677571095785100    0.8674238835838032    0.3677380835254686 Se
   0.3832369055639417    0.6240810645575251    0.6220158090950424 Se
   0.6130658520118391    0.8928717665891354    0.1184896235588269 Se
   0.6170801491734003    0.6170534841466726    0.3829225029394488 Se
   0.3820294791037410    0.8914601711441843    0.8928117748402993 Se
   0.3708233285259467    0.6347387506145449    0.1298356214306451 Se
   0.1314749913763085    0.3544448268440052    0.6286120756571680 Se
   0.1339530127899921    0.6230153467578030    0.3644799846820199 Se
   0.3695688826413512    0.3683221961323043    0.8706833163973909 Se
   0.8831639536686917    0.1173811618068657    0.6176036206920826 Se
   0.1173089984261862    0.3833714209565284    0.1170195250792747 Se
   0.1194373112311622    0.1102153088761413    0.3844487528715233 Se
   0.8865248726556227    0.3869388007119812    0.8821873554028633 Se
   0.8725943162839711    0.1321655067014640    0.1167736773309608 Se
   0.6340911824530029    0.8668776579538884    0.6305709820549947 Se
   0.6288554464399309    0.1218314873261268    0.3552328136317877 Se
   0.8635068733509940    0.8641903720221573    0.8785561869702845 Se
   0.8944101172139023    0.6276952630075742    0.1187597535033975 Se
   0.1085109880918128    0.8848505791832310    0.6252146193578648 Se
   0.1153703762973421    0.6165024722345337    0.8840011534879816 Se
   0.8814228074554669    0.8821699468008085    0.3836736669187893 Se
   0.8653427899224566    0.6303616450071527    0.6344661021566871 Se
   0.6380698300456769    0.3732371442046896    0.1295841876707552 Se
   0.6316562096901975    0.6359788858239125    0.8634257932685138 Se
   0.8659453252542647    0.3684836854406627    0.3669062457480186 Se
