Mg7 Sc16 Se32
1.0
  11.1003847944368736    0.0000000000000000    0.0000000000000000
   0.0000000000000000   11.1003847944368736    0.0000000000000000
  -0.0000000000000000   -0.0000000000000000   11.1003847944368736
Mg Sc Se
7 16 32
direct
   0.4989464739374166    0.9973995712644955    0.4959987604760290 Mg
   0.2499722478718757    0.7500846966784602    0.7501537624527005 Mg
   0.5026444462133710    0.4979093633925306    0.0044322544304035 Mg
   0.7448977623905794    0.2477613189380419    0.7493715964371315 Mg
   0.0002069578099419    0.9997737036100750    0.0058339062135727 Mg
   0.7428560798088529    0.7484236791836660    0.2571550541196287 Mg
   0.1042548996911746    0.3489231204929577    0.2946001925696771 Mg
   0.1239587577257581    0.8750872566742413    0.3746168433091390 Sc
   0.3752459343043857    0.1271416103237000    0.8764970238062051 Sc
   0.3749570073376835    0.3753018535270112    0.6249861897661309 Sc
   0.1168579514258828    0.1254124764409144    0.6193503470022939 Sc
   0.1252395298804068    0.3748950725242847    0.8748466918192561 Sc
   0.3746251144892332    0.6232832064077769    0.3756254046281716 Sc
   0.3727525433921826    0.8835475537355159    0.1283269673811899 Sc
   0.1272811992686943    0.6282049622283011    0.1213632956447473 Sc
   0.6261512234817543    0.8720856899592656    0.8742806160812964 Sc
   0.8750892629317294    0.1222781334208115    0.3852447132022548 Sc
   0.8781212035338314    0.3673291082081031    0.1225517869876883 Sc
   0.6259076577128955    0.1258269339125551    0.1283004355318810 Sc
   0.6250743388837503    0.3750077026564303    0.3749653821909868 Sc
   0.8755665929412467    0.6242167702259005    0.8766545253194942 Sc
   0.8709419929198700    0.8787256444439223    0.6277294333886024 Sc
   0.6210363219956314    0.6214200082487293    0.6215434329613732 Sc
   0.3831066274585733    0.1169054521899869    0.1170549265757657 Se
   0.6163335846974897    0.3819088952918585    0.6157691778161496 Se
   0.6206175995883235    0.1172689851741788    0.8818994970936487 Se
   0.3807167780937845    0.3816238091463034    0.3799845380946635 Se
   0.3709857945849417    0.1351148732908151    0.6298923215683774 Se
   0.1271115810603749    0.8619552593639744    0.1358387853354239 Se
   0.1324523338277327    0.1326165682078986    0.8666347457985065 Se
   0.3657696517405872    0.8690708678134260    0.3642204139584927 Se
   0.3816955972653211    0.6167546811863548    0.6193592454265425 Se
   0.6173213633932410    0.8828563695956618    0.1171656034584634 Se
   0.6133483415135240    0.6232373197675684    0.3831759552441811 Se
   0.3922634905141808    0.8838229794070552    0.8833157632879541 Se
   0.3641533388380083    0.6404777986254162    0.1269654485782866 Se
   0.1308693498565532    0.3745519262063781    0.6290331087779388 Se
   0.1307969096517059    0.6384164587334237    0.3714522856523171 Se
   0.3706789307621116    0.3640801118407785    0.8611139659891838 Se
   0.8901691946245203    0.1251157218170490    0.6177327073490765 Se
   0.1184023882976045    0.3780371326176840    0.1076400426452651 Se
   0.1235981779771109    0.1210236076913450    0.3834694759329316 Se
   0.8844796920160516    0.3842953724525431    0.8841245684280366 Se
   0.8650507469889398    0.1370549904115729    0.1423143692016768 Se
   0.6339398178354763    0.8676606555471547    0.6330673742048651 Se
   0.6312258500802033    0.1338348377414317    0.3683111343246785 Se
   0.8633481128082779    0.8630604575260807    0.8601862297258612 Se
   0.8799540216853876    0.6140572705477554    0.1258521523566334 Se
   0.1173825371810831    0.8827731878921898    0.6169866056479328 Se
   0.1212597810726462    0.6168071135083721    0.8858211145313096 Se
   0.8829555926998153    0.8848326827373905    0.3914055104463709 Se
   0.8654801262470809    0.6285274929676887    0.6349324817871489 Se
   0.6356218941444431    0.3691466338309670    0.1402552612778426 Se
   0.6339552390433473    0.6321879792115190    0.8640272435387999 Se
   0.8701807049210620    0.3667482610446225    0.3704820378219483 Se
