Mg7 Sc16 Se32
1.0
  11.1003847944368736    0.0000000000000000    0.0000000000000000
   0.0000000000000000   11.1003847944368736    0.0000000000000000
  -0.0000000000000000   -0.0000000000000000   11.1003847944368736
Mg Sc Se
7 16 32
direct
   0.2738537858415034    0.1884425480208602    0.3081408855635357 Mg
   0.2490668758630921    0.7495051123639025    0.7500803243953962 Mg
   0.5149013600764283    0.4985537740061223    0.9967398271389417 Mg
   0.7479777400011963    0.2450639818535333    0.7442112350482850 Mg
   0.0081508421454855    0.0036755289830740    0.0057009094460410 Mg
   0.7531113146409149    0.7564498296715304    0.2589254836567606 Mg
   0.0000241445789789    0.5000392703465326    0.5002130765057593 Mg
   0.1200734910917183    0.8652130243827213    0.3703871682719032 Sc
   0.3802221976987058    0.1299428915164247    0.8744179832021178 Sc
   0.3788962372048804    0.3948785391101874    0.6263895502379341 Sc
   0.1184160840245834    0.1218049611168221    0.6227751229669363 Sc
   0.1262390421049194    0.3685081312290887    0.8754282630130353 Sc
   0.3735116740262491    0.6248960820040474    0.3782758858840302 Sc
   0.3772843683402817    0.8850597547499655    0.1092438395346050 Sc
   0.1286752832036542    0.6319446054422454    0.1255057990588956 Sc
   0.6123268232453767    0.8837052362621405    0.8674790537213848 Sc
   0.8752712562310160    0.1254743000561367    0.3741113635119599 Sc
   0.8728760794162407    0.3714872276243860    0.1255487069981318 Sc
   0.6290906482064029    0.1186446718360902    0.1282899584018463 Sc
   0.6230897820010735    0.3744886393891750    0.3735761201221194 Sc
   0.8742148827221070    0.6162538319143879    0.8913846719009918 Sc
   0.8777968606777883    0.8735843841255587    0.6298086007998825 Sc
   0.6248358102114193    0.6231709025768312    0.6260635246004799 Sc
   0.3824134585463339    0.1148190527727601    0.1163427171929663 Se
   0.6166271536018586    0.3850164265169747    0.6188109158271631 Se
   0.6111050783602474    0.1088210636661172    0.8959958560645733 Se
   0.3844175382590145    0.3880960158613332    0.3738129637904556 Se
   0.3737272812575119    0.1350050207544574    0.6317020621240709 Se
   0.1243386709909447    0.8642331132844235    0.1337378820427015 Se
   0.1280633600034702    0.1308403753214463    0.8844162357986793 Se
   0.3715821596980735    0.8550607374599901    0.3822743820995131 Se
   0.3800348532160593    0.6309245624891910    0.6175257638963995 Se
   0.6141371658607574    0.8796058936058649    0.1107072542751540 Se
   0.6146521863001415    0.6086670951540475    0.3872590928543877 Se
   0.3834886663636607    0.8771348522155354    0.8803427549260275 Se
   0.3653812355032416    0.6330037951405947    0.1297974636744817 Se
   0.1317754243388677    0.3679644808705907    0.6302588529203186 Se
   0.1351805256395911    0.6335468262548192    0.3681436382536987 Se
   0.3585363430389653    0.3511592737977843    0.8620522240675280 Se
   0.8885387938717793    0.1163546653229645    0.6224771389296198 Se
   0.1209564922508354    0.3839718832628994    0.1306780475977790 Se
   0.1130243453757229    0.1193190915222071    0.3634698218407731 Se
   0.8841745871637364    0.3905914975832387    0.8789196386156348 Se
   0.8624212853676252    0.1387597977139160    0.1196098173248619 Se
   0.6336527869458279    0.8710630022596990    0.6313306254912580 Se
   0.6346367063852146    0.1373465164069542    0.3730183767704891 Se
   0.8501702241979489    0.8718016727300391    0.8674942940841524 Se
   0.8758910137887796    0.6146842134879570    0.1080786635231240 Se
   0.1159551202067203    0.8823574308947451    0.6177946664085353 Se
   0.1261309914428634    0.6153949112678194    0.8959873531649136 Se
   0.8815387296816910    0.8813919503499110    0.3804912014311383 Se
   0.8633639887088330    0.6330442993207481    0.6318836149534870 Se
   0.6217355933767618    0.3679983507149002    0.1275734799066878 Se
   0.6431297606138587    0.6187592849135419    0.8654532092924802 Se
   0.8673701153609457    0.3616441942925016    0.3554067625724180 Se
