Mg7 Sc16 Se32
1.0
  11.1003847944368736    0.0000000000000000    0.0000000000000000
   0.0000000000000000   11.1003847944368736    0.0000000000000000
  -0.0000000000000000   -0.0000000000000000   11.1003847944368736
Mg Sc Se
7 16 32
direct
   0.5013735401077450    0.9989948827879422    0.5001867786231832 Mg
   0.2502300211333693    0.7504678953460606    0.7502320934555724 Mg
   0.3607882873449509    0.3477440744178426    0.1362433248612562 Mg
   0.7492993590000731    0.2535600921504140    0.7511687361529223 Mg
   0.9998280134253016    0.0000090475865258    0.0000791577971847 Mg
   0.7488551040453512    0.7479488080846273    0.2501281727912533 Mg
   0.9983527645385184    0.4990382823262963    0.4995481604187061 Mg
   0.1288950532587337    0.8736623643055317    0.3734546317582444 Sc
   0.3753257015740742    0.1265150925616302    0.8748039196335987 Sc
   0.3728971800106776    0.3759746921133083    0.6273633087538011 Sc
   0.1250655361984503    0.1251286960878492    0.6247925217800154 Sc
   0.1263168004439023    0.3748909227413515    0.8739048714562296 Sc
   0.3750353398473275    0.6248166016147868    0.3750578472967007 Sc
   0.3736846254991352    0.8791161952489592    0.1249611712612618 Sc
   0.1256890012942290    0.6272515459691108    0.1278730453188660 Sc
   0.6224796920821777    0.8737991649020136    0.8740192071650237 Sc
   0.8750105690228484    0.1250097468041997    0.3749972015909431 Sc
   0.8766824617003778    0.3760235906830149    0.1277495954844632 Sc
   0.6253143711048305    0.1251462887003502    0.1249304990354520 Sc
   0.6242245611988667    0.3736834400870978    0.3769055634323471 Sc
   0.8751643162629043    0.6248910309392248    0.8749525516062463 Sc
   0.8722695055365791    0.8754686720437930    0.6236610943316514 Sc
   0.6256885447185422    0.6236108550074221    0.6258511446559585 Sc
   0.3819041994286411    0.1185058630184621    0.1179069457141610 Se
   0.6203510458732149    0.3829294819412748    0.6197839182237309 Se
   0.6181234184525844    0.1177733445616916    0.8806869985550431 Se
   0.3809532785899162    0.3815436519241658    0.3824826207206760 Se
   0.3664764445797706    0.1323819296664127    0.6319815590825119 Se
   0.1354929187918918    0.8643775940130298    0.1315555001952696 Se
   0.1335574909668549    0.1331585175799372    0.8667367982529763 Se
   0.3678953268915045    0.8695589880770203    0.3676204254291146 Se
   0.3832068751832031    0.6180206126913607    0.6157760649275734 Se
   0.6152044450397206    0.8857375481036837    0.1166676514904036 Se
   0.6168042222576376    0.6187937824070566    0.3840264002211102 Se
   0.3845158886101506    0.8868836875129730    0.8819662285932721 Se
   0.3655548753720343    0.6324274976716269    0.1294521843969119 Se
   0.1318156075631419    0.3649423575251498    0.6345650620992790 Se
   0.1324802073229378    0.6333774789839752    0.3704874874482452 Se
   0.3652586095271972    0.3696660418272855    0.8664399623803841 Se
   0.8839167633480582    0.1150958517694050    0.6152519169560343 Se
   0.1171350866817442    0.3828798447999917    0.1172359522655369 Se
   0.1169220933530550    0.1195967677455134    0.3829833153651557 Se
   0.8826089512182864    0.3834556919170231    0.8835498630877053 Se
   0.8663761893057905    0.1318697384474309    0.1330584527505756 Se
   0.6314979269576524    0.8645587824124955    0.6348416100535264 Se
   0.6340309321611778    0.1301691890252711    0.3683055120684496 Se
   0.8689931810627872    0.8653135649450449    0.8681597389868735 Se
   0.8853763689374656    0.6164187044810469    0.1207676079794374 Se
   0.1171475984490529    0.8826310242532130    0.6172402608414391 Se
   0.1171738832354889    0.6172608982206137    0.8830116397143640 Se
   0.8801308041912735    0.8843236842938248    0.3818513541347580 Se
   0.8671262593805683    0.6329612089605982    0.6325934387061257 Se
   0.6336902497813138    0.3709380591212481    0.1330389697748557 Se
   0.6314691454103718    0.6343893057746548    0.8671481796155199 Se
   0.8661865729921225    0.3672120494677862    0.3694468762428681 Se
