Mg7 Sc16 Se32
1.0
  11.1003847944368736    0.0000000000000000    0.0000000000000000
   0.0000000000000000   11.1003847944368736    0.0000000000000000
  -0.0000000000000000   -0.0000000000000000   11.1003847944368736
Mg Sc Se
7 16 32
direct
   0.4973234170068265    0.0081397770367802    0.4967506864272250 Mg
   0.2494752427670184    0.7449592098704704    0.7481589227410915 Mg
   0.5011250827351247    0.5001671481413050    0.9998256125837468 Mg
   0.7573839382703093    0.2456607427933775    0.7458470652138475 Mg
   0.0019206152268410    0.9965200359479371    0.9962326025125594 Mg
   0.7488409238826429    0.7545872807277946    0.2496293160497874 Mg
   0.0715597536372754    0.4196513887087694    0.3881532073821864 Mg
   0.1249604849785449    0.8698810194805763    0.3792012352128643 Sc
   0.3751156488946949    0.1249892596581210    0.8750407838827375 Sc
   0.3721049222631850    0.3743349565929388    0.6253620039027714 Sc
   0.1249121638082220    0.1249923500237712    0.6252905766712283 Sc
   0.1266573857325003    0.3713678091165056    0.8777303753955066 Sc
   0.3776586247232380    0.6311789351856668    0.3697745781380864 Sc
   0.3751098586004603    0.8809329713975087    0.1293856482545789 Sc
   0.1252632161037413    0.6346800110662036    0.1272461984450116 Sc
   0.6289364145681412    0.8716477689403989    0.8791258747705883 Sc
   0.8724234978015937    0.1243264891877203    0.3756119974735315 Sc
   0.8709278801559124    0.3720167979708546    0.1259022965976073 Sc
   0.6251702136155326    0.1251446657991635    0.1248762426325903 Sc
   0.6256639802239677    0.3673582017574499    0.3801965670048292 Sc
   0.8712840208568443    0.6183599358136009    0.8724763260823113 Sc
   0.8831338775000225    0.8715093074924669    0.6241165157789226 Sc
   0.6199071307336683    0.6279988590071678    0.6227812014561912 Sc
   0.3763718541556497    0.1123138344530061    0.1215964852742993 Se
   0.6250100884417303    0.3836756861642163    0.6219050618681055 Se
   0.6205486754602830    0.1242254134152246    0.8864464469374322 Se
   0.3800879633232850    0.3833556269353403    0.3845097444535802 Se
   0.3600713259599547    0.1322581394832939    0.6294698081685202 Se
   0.1294947573163662    0.8712528622842717    0.1397796259715992 Se
   0.1293572512825635    0.1426940954556492    0.8673721111809244 Se
   0.3697327357657424    0.8659709464258395    0.3682058781310644 Se
   0.3796812589015939    0.6158160841199900    0.6163607991087832 Se
   0.6143719048438857    0.8914207551308571    0.1200759228865771 Se
   0.6162485864534820    0.6189583664333999    0.3863479194798948 Se
   0.3826999251358039    0.8772220223473411    0.8894383975766939 Se
   0.3658129210628985    0.6359310012842585    0.1306230481392651 Se
   0.1356653000885217    0.3745413544821408    0.6255944706851827 Se
   0.1296526108773439    0.6383311176519179    0.3649267886593113 Se
   0.3671191457473537    0.3672566711849444    0.8675187604294481 Se
   0.8878444444510311    0.1101736116217301    0.6120089106997452 Se
   0.1180433871077105    0.3818875001231120    0.1174704758124493 Se
   0.1203291430718540    0.1111473291423787    0.3863331578722835 Se
   0.8901872320614224    0.3851880486898011    0.8813816392885285 Se
   0.8674672619472935    0.1331889588298925    0.1324620575572144 Se
   0.6284504764201414    0.8729451937577601    0.6337322232599967 Se
   0.6362063908254950    0.1307579653078668    0.3674238327276753 Se
   0.8677756129925513    0.8667173825616965    0.8651030527282475 Se
   0.8786214066618536    0.6143994709541442    0.1183759908556308 Se
   0.1216229964967059    0.8838837803199942    0.6126395760459471 Se
   0.1109274950355159    0.6225476337279646    0.8852899717815054 Se
   0.8838100938016894    0.8854262641875335    0.3830662420226748 Se
   0.8744772184767713    0.6360171971296815    0.6266445265389723 Se
   0.6291033321671482    0.3671772819261708    0.1264660880045816 Se
   0.6353968045508364    0.6329170086764898    0.8689089726700414 Se
   0.8668839557420044    0.3682186594802077    0.3602496788476633 Se
