Mg7 Sc16 Se32
1.0
  11.1003847944368736    0.0000000000000000    0.0000000000000000
   0.0000000000000000   11.1003847944368736    0.0000000000000000
  -0.0000000000000000   -0.0000000000000000   11.1003847944368736
Mg Sc Se
7 16 32
direct
   0.5196348990031725    0.0046039209373361    0.4999020981944732 Mg
   0.2550413569051198    0.7637581569421945    0.7442661392184535 Mg
   0.5019141725626488    0.5161224517647289    0.0062122244857216 Mg
   0.7479487439197743    0.2535658674603866    0.7511526022375380 Mg
   0.9996950435328232    0.0006909530621312    0.9999324072308469 Mg
   0.7307978685432521    0.7474191970481183    0.2573479553800457 Mg
   0.0019924237072803    0.5068091826138221    0.5023246930011700 Mg
   0.1186933513131952    0.8677025950005386    0.3813691331137307 Sc
   0.3871355612826431    0.1267204670602234    0.8641545390407205 Sc
   0.3728163239267812    0.3806688737272090    0.6277949485557917 Sc
   0.1317219542650288    0.1338282305388642    0.6180377739337110 Sc
   0.1388891131153863    0.3773615151469788    0.8769858618002422 Sc
   0.3751427919063802    0.6199605230738132    0.3766762762018780 Sc
   0.3769133621879334    0.8706003060731049    0.1170974766094352 Sc
   0.1416915643945379    0.6155381601199231    0.1246330941820483 Sc
   0.6323524989181505    0.8624551594011480    0.8696472839260158 Sc
   0.8591107166600216    0.1331131844037318    0.3755232262309437 Sc
   0.8798452789538990    0.3726088750774550    0.1209230478093722 Sc
   0.6244568369143472    0.1345664932991283    0.1270305586459280 Sc
   0.6226793692497943    0.3748004914520714    0.3724167647749441 Sc
   0.8690348207801031    0.6217202597315944    0.8698039128100612 Sc
   0.8759134249596511    0.8712323873518943    0.6197011707307131 Sc
   0.6216220144828544    0.6173422621618141    0.6319528508070701 Sc
   0.3720078217258418    0.1138333040174264    0.1313834138161225 Se
   0.6175201957442614    0.3761459956689076    0.6366890782837581 Se
   0.6002937470808564    0.1219726905723164    0.8849351221857761 Se
   0.3934037161839610    0.3780733026110862    0.3952142065823117 Se
   0.3668891399790598    0.1324206946575189    0.6343869973316324 Se
   0.1449174620671777    0.8643921275213899    0.1323149536009734 Se
   0.1309393952858859    0.1318884557643812    0.8683289242554590 Se
   0.3618224326608016    0.8614507110333582    0.3684432291646278 Se
   0.3908554061447597    0.6063862577290230    0.6234229526689310 Se
   0.6102177403462482    0.8839186519457081    0.1297620061020544 Se
   0.6118775475539185    0.6118275928727127    0.3797531813906451 Se
   0.3865862616957165    0.8731064584296775    0.8643336520647317 Se
   0.3735227582698838    0.6284361704346695    0.1247298298036195 Se
   0.1352250159965775    0.3745079248636786    0.6305673628617747 Se
   0.1279954243671651    0.6250145128621445    0.3579186985427190 Se
   0.3689721115703395    0.3534797804970799    0.8489321517518599 Se
   0.8734142331115263    0.0972279674606372    0.6206023523999494 Se
   0.1178033173150863    0.3766288849322890    0.1189861919336517 Se
   0.1213198911451902    0.1058855573982785    0.3817869440471610 Se
   0.8600787998730834    0.3775426405685084    0.8841376532201622 Se
   0.8572565181890022    0.1307664350274307    0.1300755188639206 Se
   0.6181197001136550    0.8490149472547869    0.6360363744677542 Se
   0.6372903729181654    0.1189614522978030    0.3820710045707196 Se
   0.8692888163642768    0.8611544732658585    0.8688945510225082 Se
   0.8872586762954696    0.6083456132827118    0.0982782548727351 Se
   0.1337562680856047    0.8762051240137546    0.6192716836638008 Se
   0.1236390849968261    0.6186505875143870    0.8784843914543609 Se
   0.8807485883174713    0.8820457813717021    0.3817155035813480 Se
   0.8678735424470497    0.6204797056118014    0.6247336451279765 Se
   0.6344699676315052    0.3712587191828539    0.1335212885242071 Se
   0.6303368217938973    0.6338557715912321    0.8668059123915219 Se
   0.8723516800953643    0.3547127066929116    0.3827379130719606 Se
