Mg7 Sc16 Se32
1.0
  11.1003847944368736    0.0000000000000000    0.0000000000000000
   0.0000000000000000   11.1003847944368736    0.0000000000000000
  -0.0000000000000000   -0.0000000000000000   11.1003847944368736
Mg Sc Se
7 16 32
direct
   0.5104088156092490    0.9904642698470573    0.5108345486473113 Mg
   0.2372666871650100    0.7401662327556470    0.7539173120228227 Mg
   0.4881355241427094    0.4908231080689601    0.9958058543485605 Mg
   0.7498795704433742    0.2447802452208977    0.7480327834118106 Mg
   0.0065737480533751    0.9976988529238132    0.9947320556483903 Mg
   0.7488052619145675    0.7478818377295968    0.2541428277990661 Mg
   0.1516162885118479    0.3650930138219844    0.3560118737259571 Mg
   0.1319034117942037    0.8781766021266963    0.3567157285925605 Sc
   0.3795868435185454    0.1169969209914843    0.8733610827519771 Sc
   0.3707942785119563    0.3842029365124091    0.6367052648232301 Sc
   0.1244714275591173    0.1194343762158215    0.6241507846736910 Sc
   0.1278604060342003    0.3750647104582601    0.8824286962157911 Sc
   0.3759132410841549    0.6248039551925645    0.3912139576081707 Sc
   0.3869759781272712    0.8836395381899502    0.1306157286755178 Sc
   0.1309970078425594    0.6322821689324143    0.1214164141190531 Sc
   0.6241724265685559    0.8769350309832298    0.8718177768496129 Sc
   0.8713613705678892    0.1234327688185451    0.3844598695277430 Sc
   0.8914726956905843    0.3734723614948105    0.1196130149345071 Sc
   0.6171474556136373    0.1078216948759840    0.1292419709570507 Sc
   0.6262176974546600    0.3872705833968368    0.3820833138260223 Sc
   0.8733901801869770    0.6252191318887744    0.8758498349854253 Sc
   0.8688607746276377    0.8639670604181409    0.6291623426139696 Sc
   0.6315412214192424    0.6293035510091499    0.6214742472712748 Sc
   0.3744797267543536    0.1260690587241235    0.1326075135587593 Se
   0.6064650310734655    0.3864201367402816    0.6312315633530701 Se
   0.6106606662619313    0.0995996632601407    0.8859800163361681 Se
   0.3942443517529605    0.3966575535228736    0.3728118206620152 Se
   0.3671554925999077    0.1344795317366739    0.6249664432455259 Se
   0.1320547079861139    0.8531907394416194    0.1358760870395528 Se
   0.1312193079310773    0.1345992033474081    0.8627221012496270 Se
   0.3721213506803708    0.8581886785396734    0.3824272650389871 Se
   0.3934829514037553    0.6189200507002335    0.6210068074979438 Se
   0.6162668684879455    0.8878785807116933    0.1091068598987531 Se
   0.6096705043438051    0.6252465537446951    0.3719772517177917 Se
   0.3938164415398324    0.8859783235073658    0.8925963692234528 Se
   0.3601794035354027    0.6288152772002057    0.1166922801742365 Se
   0.1260849828561772    0.3616467242791866    0.6387015783315368 Se
   0.1372283246467171    0.6397684233977943    0.3790129278488401 Se
   0.3572721778893728    0.3662154104171942    0.8562517752066724 Se
   0.8973238376484144    0.1187557122986226    0.6052012260017865 Se
   0.1179107773935947    0.3844006739171206    0.1176088135344744 Se
   0.1215953150280036    0.1116830547840058    0.3766400265445428 Se
   0.8760641422149921    0.3878003574300233    0.8661796587394189 Se
   0.8773280653466220    0.1296110629177785    0.1336813736785472 Se
   0.6452742331821468    0.8592449025912217    0.6320315605310142 Se
   0.6291586044807713    0.1355296222485544    0.3604514453492472 Se
   0.8597191005595336    0.8677746590233418    0.8673901183957232 Se
   0.8823530291168550    0.6059442194034717    0.1225446488935513 Se
   0.1264580526454088    0.8885760327373927    0.6128836921914241 Se
   0.1123696749866257    0.6009376867374319    0.8828211547300149 Se
   0.8783077487975686    0.8837481965652977    0.3936681793767891 Se
   0.8642339417484128    0.6267829625586460    0.6330646907742499 Se
   0.6292730990601194    0.3666369074241694    0.1277001652949156 Se
   0.6264847701730039    0.6435440231623183    0.8688003146733071 Se
   0.8528176153343028    0.3710555824875654    0.3666632087502563 Se
