Mg7 Sc16 Se32
1.0
  11.1003847944368736    0.0000000000000000    0.0000000000000000
   0.0000000000000000   11.1003847944368736    0.0000000000000000
  -0.0000000000000000   -0.0000000000000000   11.1003847944368736
Mg Sc Se
7 16 32
direct
   0.4997097173678441    0.9998619041613868    0.5003661173472006 Mg
   0.2562253488950719    0.7513616376422663    0.7513173887474377 Mg
   0.4976670152340498    0.4979295117453514    0.9991429872594231 Mg
   0.7530857739389238    0.2531409599908315    0.7511698794055164 Mg
   0.2508123342896341    0.2473535171125005    0.2545318608674602 Mg
   0.7525397135579824    0.7522354567559296    0.2499920876124863 Mg
   0.0008001884723627    0.4987560224498697    0.5011661787228807 Mg
   0.1281890379732759    0.8753509066021147    0.3804763662093862 Sc
   0.3798797847243969    0.1210581009230681    0.8746077956205367 Sc
   0.3711669892200303    0.3778722528556537    0.6271577484948467 Sc
   0.1218679328505632    0.1291359900017142    0.6195841096235650 Sc
   0.1255494812828513    0.3692281698474542    0.8712906551676283 Sc
   0.3737668540594056    0.6251795546036496    0.3726611032002046 Sc
   0.3712556271572195    0.8736920317152674    0.1251223496529988 Sc
   0.1239938836546843    0.6243384435429035    0.1243895594673596 Sc
   0.6231779997547902    0.8736579787897555    0.8755073053415510 Sc
   0.8712531936592131    0.1229092554267946    0.3765954504699121 Sc
   0.8763635925694129    0.3754129470914250    0.1244122005074230 Sc
   0.6292282588677267    0.1200324228034221    0.1274466660639709 Sc
   0.6244507311709364    0.3695375244593733    0.3739168446695941 Sc
   0.8787754505233819    0.6293018724970069    0.8746824441926211 Sc
   0.8721969871569227    0.8751374868209673    0.6249044129378756 Sc
   0.6214000326640032    0.6215145881281657    0.6202437339727150 Sc
   0.3840436277899337    0.1153389260255188    0.1101217768242550 Se
   0.6172672080094569    0.3827496098296625    0.6174162755691662 Se
   0.6186305647293762    0.1171938455345475    0.8807674830226921 Se
   0.3825604535232217    0.3800382929838428    0.3861452117685772 Se
   0.3686436762042951    0.1315836835232990    0.6343813588658311 Se
   0.1326943882864035    0.8663865731050552    0.1318278034321817 Se
   0.1271141713563216    0.1369694377800199    0.8657557965130781 Se
   0.3680743372594006    0.8655270764375127    0.3667114453083114 Se
   0.3828235128205325    0.6207235673077072    0.6115720168295002 Se
   0.6166297756569090    0.8866811146453966    0.1162565389786377 Se
   0.6203731688547154    0.6195350548005618    0.3774371111959913 Se
   0.3825866818448423    0.8756771755026169    0.8824170000221688 Se
   0.3692235434552478    0.6339056082480570    0.1365220921058778 Se
   0.1309034317480026    0.3630176520119412    0.6347493059586173 Se
   0.1367975778828557    0.6288096473719256    0.3689179475204672 Se
   0.3670058295635386    0.3671341197128246    0.8673608685530105 Se
   0.8801056608499268    0.1163167484252876    0.6168829181137607 Se
   0.1165014875966958    0.3808946930243093    0.1171843380551321 Se
   0.1196120173826940    0.1206868196221846    0.3801587726289475 Se
   0.8831652773918273    0.3845035397384424    0.8810185417829651 Se
   0.8676378830255408    0.1350556193688835    0.1359403278284434 Se
   0.6305740882828721    0.8650551255168640    0.6346802895141354 Se
   0.6350632936897489    0.1355960622685064    0.3695673506382554 Se
   0.8671960007019220    0.8600431813751044    0.8700100681698084 Se
   0.8830890405925497    0.6176305722737262    0.1166218904877500 Se
   0.1134344116938081    0.8887007434364552    0.6196823420436733 Se
   0.1151445635045787    0.6163157026405073    0.8841790643069614 Se
   0.8834976014310745    0.8864946011563088    0.3802649346175180 Se
   0.8675511008090470    0.6318507800673687    0.6395735549994702 Se
   0.6377909129966676    0.3653730450280898    0.1363298334989069 Se
   0.6325146789511953    0.6328470056787917    0.8671785813592734 Se
   0.8678954325378708    0.3651997337836949    0.3661667393279410 Se
