Mg7 Sc16 Se32
1.0
  11.1003847944368736    0.0000000000000000    0.0000000000000000
   0.0000000000000000   11.1003847944368736    0.0000000000000000
  -0.0000000000000000   -0.0000000000000000   11.1003847944368736
Mg Sc Se
7 16 32
direct
   0.1760174867295962    0.2982952250892019    0.2184993144607573 Mg
   0.2483726118202622    0.7516402596734352    0.7571978376437455 Mg
   0.4890786141296715    0.4905022005732415    0.9991698182542520 Mg
   0.7499926970626131    0.2409610382532474    0.7519646813708428 Mg
   0.0068408136657094    0.0049105380984213    0.0006829939442894 Mg
   0.7537136789985468    0.7687552411797418    0.2626804203655069 Mg
   0.9905053980534788    0.5053095161925276    0.4934989844038085 Mg
   0.1315083604645580    0.8748960451847091    0.3686155627976737 Sc
   0.3625976562810176    0.1216163753846769    0.8821433766780504 Sc
   0.3598503529115715    0.3634757591717092    0.6142617035676586 Sc
   0.1252654504228433    0.1244360439583471    0.6342705946484594 Sc
   0.1401837939957631    0.3813597962106789    0.8775572189841960 Sc
   0.3758294137606499    0.6258145343592938    0.3734326997372270 Sc
   0.3770861702008523    0.8844210224804859    0.1320578491818751 Sc
   0.1357733296421219    0.6246117229358150    0.1170896371269637 Sc
   0.6215653125751799    0.8760053974401493    0.8762044811668375 Sc
   0.8737779012227410    0.1242402529997293    0.3760704843280411 Sc
   0.8831075474694190    0.3638473149662538    0.1224994678871273 Sc
   0.6160826185015658    0.1187823766196957    0.1200907524487484 Sc
   0.6344878309301082    0.3646124981070111    0.3744799259533869 Sc
   0.8712809594963382    0.6252890391261197    0.8780879282735281 Sc
   0.8780348916331485    0.8812119227811064    0.6344605198142935 Sc
   0.6269008526700802    0.6301519536565512    0.6253215764215996 Sc
   0.4017914195156242    0.1253816900817927    0.1106787580557401 Se
   0.6217906880627888    0.3957070757590373    0.6221507828768447 Se
   0.6221150477656360    0.1131049786057277    0.8866208419643746 Se
   0.3725410809967321    0.3838056445511381    0.4040025605904118 Se
   0.3567754916903536    0.1364784946281973    0.6439790509533984 Se
   0.1332206778629900    0.8655830663515863    0.1335350640822459 Se
   0.1322904768646595    0.1366005007724419    0.8665820741244060 Se
   0.3730661524650654    0.8613857135789882    0.3695196838107657 Se
   0.3748331581710158    0.6179182167635339    0.6171284012511374 Se
   0.6218407615270793    0.8653571744805302    0.1027499231610635 Se
   0.6185397932357293    0.5985960871319188    0.3757490225422589 Se
   0.3825871294762369    0.8819699893913476    0.8780860189952149 Se
   0.3604284726076336    0.6486121295083549    0.1419965877226526 Se
   0.1262096403678333    0.3665103476034459    0.6191953688179287 Se
   0.1300926098566724    0.6342973077595111    0.3670330152608320 Se
   0.3512266925867576    0.3777030460298712    0.8655912649537699 Se
   0.8825725570382211    0.1162781688106902    0.6158076029574044 Se
   0.1169205620937394    0.3835108414242245    0.1171353162973012 Se
   0.1144070979937515    0.1231823097191496    0.3807264650872177 Se
   0.8843752712637377    0.3800469676582252    0.8804471429866495 Se
   0.8816396446196709    0.1366321623222665    0.1179660466446399 Se
   0.6506332131599750    0.8728485486550931    0.6287095138284987 Se
   0.6453965072500142    0.1351013539825444    0.3547674334083438 Se
   0.8714126618372515    0.8668570281282648    0.8636828418945810 Se
   0.8869426568704963    0.6180033619386417    0.1191016965508915 Se
   0.1313282159356120    0.8811993215607041    0.6239144807917625 Se
   0.1166003731127054    0.6212705979845731    0.8848748097937337 Se
   0.8765501451913811    0.8854444822772066    0.3804669823027736 Se
   0.8801100769123739    0.6339262580015725    0.6421111902691615 Se
   0.6328878065292395    0.3672825711498552    0.1328611709706909 Se
   0.6438348824774747    0.6431068216912916    0.8706041355518058 Se
   0.8725638499537436    0.3787823266010348    0.3781324728374821 Se
