Mg7 Sc16 Se32
1.0
  11.1003847944368736    0.0000000000000000    0.0000000000000000
   0.0000000000000000   11.1003847944368736    0.0000000000000000
  -0.0000000000000000   -0.0000000000000000   11.1003847944368736
Mg Sc Se
7 16 32
direct
   0.5029877595962906    0.0023042832195111    0.4935149739435553 Mg
   0.2453475627151990    0.7472151872283267    0.7477213930374880 Mg
   0.4986277771150126    0.5109377434757703    0.0063739171684450 Mg
   0.7442188776651311    0.2382331757903693    0.7562769430698828 Mg
   0.0512312927073632    0.1028466469243646    0.0847250766508994 Mg
   0.7521404586570417    0.7636397614387731    0.2568891482042094 Mg
   0.9925838475266682    0.4998128018314138    0.4894821395619847 Mg
   0.1244736817855598    0.8724861039809859    0.3745299181057468 Sc
   0.3695950663837048    0.1198846070614583    0.8673011323125196 Sc
   0.3648047000257929    0.3767481960571772    0.6283536625957910 Sc
   0.1235857355313067    0.1242411320159963    0.6245858361564375 Sc
   0.1199519225639994    0.3687806745799494    0.8640171132536495 Sc
   0.3727758180665452    0.6182583058086798    0.3776617668430264 Sc
   0.3753898035736318    0.8788155884973941    0.1207518457849738 Sc
   0.1141525344743365    0.6236945647617737    0.1366676606130821 Sc
   0.6216268031982460    0.8733798363015587    0.8780123197863747 Sc
   0.8736547527810333    0.1257675418499526    0.3730312750570065 Sc
   0.8744956327480523    0.3737763644423971    0.1325343830866343 Sc
   0.6252786040402607    0.1263008076986040    0.1253241020767350 Sc
   0.6313415546869768    0.3717875031061729    0.3701130931882534 Sc
   0.8652992956143778    0.6245735762062079    0.8794299464649441 Sc
   0.8812563659818443    0.8740824448568005    0.6333309341974936 Sc
   0.6224045814899934    0.6169024327956047    0.6186130477044758 Sc
   0.3788994731960281    0.1129590744247046    0.1156768108879491 Se
   0.6127294636976215    0.3933859689047335    0.6214190141409871 Se
   0.6152449403273923    0.1056000784266607    0.8889198936859680 Se
   0.3885170865858124    0.3740607272538692    0.3846148465701343 Se
   0.3663729575252567    0.1315383530904722    0.6330313937859323 Se
   0.1400786623962612    0.8699147539220083    0.1364711921298215 Se
   0.1373186864934193    0.1263160674169074    0.8696973107977071 Se
   0.3737435879846817    0.8561636980210230    0.3787016715183535 Se
   0.3759618672265118    0.6297590131801856    0.6173564648987339 Se
   0.6197506201202587    0.8953416844055041    0.1160098192520562 Se
   0.6170068818579179    0.6107013015832407    0.3931320562852288 Se
   0.3857736080641612    0.8832444914254139    0.8823625619230092 Se
   0.3689993121129005    0.6373187577858884    0.1365325491227280 Se
   0.1449160249089939    0.3625084080732115    0.6274655001314869 Se
   0.1339309970613906    0.6299383695595152    0.3636355197690621 Se
   0.3744569900895572    0.3708312072761795    0.8624317873318676 Se
   0.8829139432801972    0.1172377832176350    0.6170156462373442 Se
   0.1156672915131470    0.3929335554496869    0.1117338423302684 Se
   0.1171768291202274    0.1170443359667472    0.3829804450116348 Se
   0.8859871227603594    0.3840154841266777    0.8829373827789945 Se
   0.8676748001850073    0.1326789546007016    0.1346160105037722 Se
   0.6385837161879778    0.8806136420850195    0.6260355985825992 Se
   0.6247499102853262    0.1380348052109103    0.3731521666626812 Se
   0.8603776992799913    0.8710021706650014    0.8578692580594289 Se
   0.8756113705023162    0.6150389205311754    0.1286215051178847 Se
   0.1186602997163012    0.8896472357053729    0.6238635368799595 Se
   0.1081229505816905    0.6070883654283884    0.8913931185746251 Se
   0.8882863298727669    0.8860655298448266    0.3835959439040355 Se
   0.8632882817036179    0.6405520770010058    0.6254894839023932 Se
   0.6410698966165311    0.3597797676775006    0.1436189969275171 Se
   0.6304696069741915    0.6482539773256363    0.8633026805136597 Se
   0.8662140426681069    0.3709482126938519    0.3773524290247886 Se
