Mg7 Sc16 Se32
1.0
  11.1003847944368736    0.0000000000000000    0.0000000000000000
   0.0000000000000000   11.1003847944368736    0.0000000000000000
  -0.0000000000000000   -0.0000000000000000   11.1003847944368736
Mg Sc Se
7 16 32
direct
   0.2571986067522886    0.2455356317016867    0.2385326095246122 Mg
   0.2489371157629935    0.7515534301040833    0.7479782961016965 Mg
   0.4986054800728775    0.5014025737963970    0.9923438508634601 Mg
   0.7505988876307370    0.2446521117533624    0.7498247464937269 Mg
   0.9972891368089678    0.0071928715426016    0.0061752794955485 Mg
   0.7501463224570442    0.7477777269154455    0.2488663496071323 Mg
   0.9898825417684554    0.4961558730879049    0.4912887673606153 Mg
   0.1311144985438364    0.8619807673176326    0.3798308807727637 Sc
   0.3756206462225532    0.1201340607896699    0.8755211419150097 Sc
   0.3698675905541428    0.3829356437918788    0.6394172090042755 Sc
   0.1370762680928469    0.1195508996262686    0.6283377664790623 Sc
   0.1303260252022400    0.3712768534685904    0.8812842586064508 Sc
   0.3765123167057560    0.6302744295289490    0.3679948078019472 Sc
   0.3833446388114651    0.8759575193573877    0.1241104290935515 Sc
   0.1304690227569843    0.6236659485648062    0.1266252757614455 Sc
   0.6250765371025966    0.8639154124264378    0.8807538677471082 Sc
   0.8730518583766325    0.1256748747999929    0.3745140929216870 Sc
   0.8727992013716389    0.3679810955840072    0.1189943472414711 Sc
   0.6247906841250693    0.1228619807512474    0.1251580251584284 Sc
   0.6177396480493649    0.3797891423483647    0.3802801181029272 Sc
   0.8785343285333661    0.6305906967027526    0.8704402906306239 Sc
   0.8789245169486584    0.8823695763057310    0.6132659740408815 Sc
   0.6200003306605624    0.6144346000473537    0.6178069355981566 Sc
   0.3848211273393892    0.1139216549615725    0.1095607731484816 Se
   0.6180235615826681    0.3874517889696685    0.6204136199036904 Se
   0.6169504855011173    0.1225044479386441    0.8736714753315193 Se
   0.3778550270313973    0.3973527500265166    0.3831050724853906 Se
   0.3656103323216299    0.1276510873286831    0.6324114851492868 Se
   0.1327608480375404    0.8670353750773349    0.1325334420633031 Se
   0.1330128314563389    0.1328412061340042    0.8663285679583024 Se
   0.3645679678353897    0.8643423471514783    0.3678557684400118 Se
   0.3822939655318522    0.6172995589822471    0.6165184705470727 Se
   0.6166505118333762    0.8826932466714629    0.1165245461571935 Se
   0.6141346340704141    0.6186475960687158    0.3961618348893166 Se
   0.3811528789889785    0.8813627769060262    0.8820617846948881 Se
   0.3631586135530871    0.6347297494686273    0.1243820160294520 Se
   0.1308958505881057    0.3708118470605264    0.6324050512231091 Se
   0.1463591363557907    0.6375082119367812    0.3659929852212936 Se
   0.3655926960676903    0.3675406177898711    0.8647372626105063 Se
   0.8792322903479887    0.1244701647385448    0.6111424160626830 Se
   0.1288159196790784    0.3946425088780263    0.1222078288244436 Se
   0.1177776645008815    0.1177621356643788    0.3836000500296796 Se
   0.8836628518019479    0.3833648472484417    0.8832905044722164 Se
   0.8618674898864677    0.1379475889209098    0.1276750572023270 Se
   0.6310738072812613    0.8672904502690607    0.6401640985795312 Se
   0.6328327214836228    0.1328466294818782    0.3671677465651275 Se
   0.8676029085659309    0.8700550519794131    0.8580646292364508 Se
   0.8809547660457396    0.6156745006258963    0.1053900551624382 Se
   0.1129574048767374    0.8844343770846786    0.6104608770478953 Se
   0.1150406819672300    0.6133352590462827    0.8826815613583987 Se
   0.8801213429369240    0.8696450863934622    0.3724854024517282 Se
   0.8739330758219248    0.6403267535198183    0.6192015833090077 Se
   0.6303442781750197    0.3698162819598022    0.1336518524796505 Se
   0.6301644140496201    0.6301642305898623    0.8788417838500409 Se
   0.8677530957256012    0.3656706499875999    0.3668850720122184 Se
