Mg7 Sc16 Se32
1.0
  11.1003847944368736    0.0000000000000000    0.0000000000000000
   0.0000000000000000   11.1003847944368736    0.0000000000000000
  -0.0000000000000000   -0.0000000000000000   11.1003847944368736
Mg Sc Se
7 16 32
direct
   0.5007111404600693    0.0063515023815559    0.4944082443972919 Mg
   0.1934762840122380    0.3116223383025900    0.2574716152170740 Mg
   0.4990950460963746    0.5008752705223183    0.9994115718041022 Mg
   0.7436784102563406    0.2536160284869388    0.7503094875229476 Mg
   0.9915388843931795    0.9968139537781299    0.0055185587788203 Mg
   0.7509061171020813    0.7527531033041134    0.2553268298978559 Mg
   0.0020607694453934    0.5022944422470834    0.5005744542664700 Mg
   0.1203610131223892    0.8765656753967684    0.3778647984094499 Sc
   0.3728009956515744    0.1238336448552189    0.8723555884733738 Sc
   0.3750176239147664    0.3750759303062455    0.6252117767653202 Sc
   0.1240611481737576    0.1234863534882854    0.6245244028193622 Sc
   0.1254793052498054    0.3745357065937496    0.8758673099565368 Sc
   0.3721112641199031    0.6280673427567790    0.3810798379886077 Sc
   0.3745034153645929    0.8751860911149821    0.1231625837767946 Sc
   0.1263307478998518    0.6268410819795270    0.1252151532066673 Sc
   0.6241340246791506    0.8737628479476414    0.8751137206710178 Sc
   0.8706109510410337    0.1252263448970139    0.3790512682828867 Sc
   0.8766019782457010    0.3660864988507416    0.1235677666312977 Sc
   0.6209369065964641    0.1275472048231430    0.1296892978811868 Sc
   0.6274830002290269    0.3698813326477400    0.3770401884696323 Sc
   0.8718084980656755    0.6303537791052303    0.8832770890690288 Sc
   0.8748652925246747    0.8744410629950075    0.6272762134450452 Sc
   0.6269130661001208    0.6267205418058850    0.6244813334935293 Sc
   0.3831397335673412    0.1171858167486045    0.1171027404394872 Se
   0.6213078167976535    0.3868112460429905    0.6183879115605327 Se
   0.6139835563095660    0.1265448440658586    0.8787520558232421 Se
   0.3834651787367992    0.3831247944851390    0.3796579191931731 Se
   0.3686127568615612    0.1249568101455120    0.6348787430870195 Se
   0.1328395456141298    0.8683066854026027    0.1319022547728583 Se
   0.1358092659488196    0.1309801936842713    0.8770568246463351 Se
   0.3731589986686117    0.8625161269292625    0.3701308614213364 Se
   0.3877419729176445    0.6179706139910187    0.6152072803073226 Se
   0.6162170563788886    0.8821627332731307    0.1177561751631062 Se
   0.6189683713772913    0.6183758927691209    0.3864660108950342 Se
   0.3800652383148452    0.8838357727042306    0.8864097381389068 Se
   0.3680325630402712    0.6318156762500923    0.1313928413542310 Se
   0.1290189194412201    0.3672621081323031    0.6397275338267824 Se
   0.1316991355061981    0.6280040813465925    0.3619842935069809 Se
   0.3626767213669659    0.3601100765696755    0.8604785034931862 Se
   0.8787570263059626    0.1183890585737699    0.6115962236866718 Se
   0.1190339573726701    0.3731264918184182    0.1212293115537188 Se
   0.1168138646987417    0.1120627239403787    0.3894890600419526 Se
   0.8827619381138636    0.3832549451435878    0.8828400368571284 Se
   0.8667547101330284    0.1327862351627103    0.1331608944302831 Se
   0.6333818109270583    0.8670487179993902    0.6310391299539174 Se
   0.6322300002126153    0.1364984989325165    0.3664307886783101 Se
   0.8609365743520458    0.8638575696805942    0.8650399755362738 Se
   0.8848076184743473    0.6141622363240663    0.1118240994064674 Se
   0.1173812777981892    0.8796166347307985    0.6162992168746425 Se
   0.1118049996134315    0.6189296308177816    0.8893756782537388 Se
   0.8834650778426001    0.8826089649477219    0.3813284750148989 Se
   0.8719198026256000    0.6325948012714436    0.6402822067407572 Se
   0.6355333377342005    0.3639939529612556    0.1382664807144965 Se
   0.6291529158521878    0.6346033851552433    0.8687270003018822 Se
   0.8739891599459710    0.3666207523101341    0.3711833275419655 Se
