Mg7 Sc16 Se32
1.0
  11.1003847944368736    0.0000000000000000    0.0000000000000000
   0.0000000000000000   11.1003847944368736    0.0000000000000000
  -0.0000000000000000   -0.0000000000000000   11.1003847944368736
Mg Sc Se
7 16 32
direct
   0.5011360258417976    0.0011611419835076    0.5002430234218711 Mg
   0.2028962810775002    0.4200915109987918    0.3757621091380945 Mg
   0.5007430278503203    0.4976128719034313    0.9933873374884261 Mg
   0.7487836356968016    0.2532049928939974    0.7485722077735510 Mg
   0.0032224968388139    0.0050981413371819    0.9994005117056238 Mg
   0.7528067277574361    0.7510233115728551    0.2545227657439609 Mg
   0.9963367749041389    0.5001525240250638    0.5011419484163947 Mg
   0.1260542218711066    0.8770394474378631    0.3757970101302928 Sc
   0.3725100702277847    0.1261001877034349    0.8735567292829696 Sc
   0.3716509435147511    0.3773130034795470    0.6267080931601021 Sc
   0.1233251334386839    0.1247525234063983    0.6253191868849280 Sc
   0.1247623903284575    0.3746822236975654    0.8750397304829782 Sc
   0.3758929004222092    0.6263010904437845    0.3701712133886796 Sc
   0.3718256768792152    0.8724846301226384    0.1266961416504976 Sc
   0.1258089236581875    0.6249203605498078    0.1243722676944917 Sc
   0.6259275905009232    0.8748258826540103    0.8684212505840496 Sc
   0.8719989153469698    0.1183972278031000    0.3728255007084639 Sc
   0.8733401646000468    0.3776880651287486    0.1238848863942822 Sc
   0.6292439737472584    0.1276942776925315    0.1253555707102527 Sc
   0.6280894634056940    0.3749954414295343    0.3748634261871812 Sc
   0.8766755576084508    0.6249397105610284    0.8740008906784741 Sc
   0.8738626003815035    0.8715262198995197    0.6272972748566314 Sc
   0.6227262813404217    0.6246879188614626    0.6295801442232631 Sc
   0.3786678198659801    0.1209172292276104    0.1218947789469663 Se
   0.6207084899403965    0.3804296054217414    0.6159502239485822 Se
   0.6194601808379608    0.1197808600937733    0.8845467782545412 Se
   0.3818457541677679    0.3788138495724379    0.3795600150078656 Se
   0.3646452268746088    0.1303156058068520    0.6273580249248220 Se
   0.1281937440950024    0.8651769342962677    0.1298692509478718 Se
   0.1336339590741168    0.1347706306197856    0.8637683626296062 Se
   0.3656088077988132    0.8693920590151075    0.3687611126996116 Se
   0.3836413783330201    0.6167324998416132    0.6167670684245417 Se
   0.6127351054567675    0.8833054479085360    0.1174389272248634 Se
   0.6165105088382878    0.6153777528822316    0.3829661258397798 Se
   0.3809391353219144    0.8830712518428159    0.8823981306448861 Se
   0.3671804581731763    0.6312253726013569    0.1327089088099488 Se
   0.1301617992226181    0.3621879389791198    0.6372926012663864 Se
   0.1272351575275667    0.6313626090866125    0.3667912209934153 Se
   0.3736216573481840    0.3653781715586414    0.8669895437461408 Se
   0.8803494283880939    0.1102571230246384    0.6193551106078112 Se
   0.1182916564091110    0.3807117438778916    0.1239972843491437 Se
   0.1176186609374792    0.1189849295086341    0.3824943190928776 Se
   0.8822463672559723    0.3828964625102216    0.8825108021806852 Se
   0.8673745055507144    0.1326776707005749    0.1330697145569325 Se
   0.6333886921175977    0.8665778029181467    0.6335315241485336 Se
   0.6305120245225679    0.1317764157831875    0.3655115707968007 Se
   0.8669957629760117    0.8686677165427841    0.8641917290571042 Se
   0.8828710498844495    0.6172201313863536    0.1164154653682970 Se
   0.1125417839694548    0.8793247225273376    0.6221236233548779 Se
   0.1179214406512805    0.6182405565419489    0.8820762859708611 Se
   0.8767838730072344    0.8841528229308482    0.3830800819094450 Se
   0.8648413857764086    0.6364159686976006    0.6326324263031756 Se
   0.6331348928220057    0.3669004919523714    0.1324200322088150 Se
   0.6389439444555883    0.6355267440042125    0.8699975449131802 Se
   0.8672494165263513    0.3679760248863937    0.3649122364173057 Se
