Mg7 Sc16 Se32
1.0
  11.1003847944368736    0.0000000000000000    0.0000000000000000
   0.0000000000000000   11.1003847944368736    0.0000000000000000
  -0.0000000000000000   -0.0000000000000000   11.1003847944368736
Mg Sc Se
7 16 32
direct
   0.4959528012868069    0.0030567502049215    0.4986506758404288 Mg
   0.1828761930949992    0.2056708828963650    0.1508668339971767 Mg
   0.4992476617441772    0.5019756352025632    0.9995314997248547 Mg
   0.7489007224170904    0.2526218831926095    0.7515995397397737 Mg
   0.9997568547433063    0.9978224137695522    0.9983772541702145 Mg
   0.7514661521873529    0.7557352605206641    0.2507904935042489 Mg
   0.9999627537617789    0.4951414899399563    0.5051454739332722 Mg
   0.1251840881656914    0.8730900705940238    0.3695109019278719 Sc
   0.3769496631367079    0.1262580339454799    0.8751059595547946 Sc
   0.3777540042605954    0.3701648028322579    0.6246383307453022 Sc
   0.1255414500917645    0.1250091187325223    0.6244778378498348 Sc
   0.1250183753995558    0.3726074650301320    0.8720542529377504 Sc
   0.3717145025126511    0.6211584380349119    0.3781447394083390 Sc
   0.3749362547604467    0.8762854916239519    0.1174398914620165 Sc
   0.1263131497275134    0.6252360102855448    0.1296874073457510 Sc
   0.6212034866633506    0.8780489018783053    0.8755291818382979 Sc
   0.8701655661872474    0.1239417514762282    0.3801276338870075 Sc
   0.8750474402549816    0.3749673452807092    0.1251188409911737 Sc
   0.6273765861965603    0.1196994531451183    0.1220766859566583 Sc
   0.6223404736097808    0.3710956793373664    0.3735495926502895 Sc
   0.8748575764691473    0.6294085648132330    0.8795257969665973 Sc
   0.8751224916185263    0.8750452327142737    0.6249720803928401 Sc
   0.6195967622905021    0.6222782581058265    0.6261848563085487 Sc
   0.3876510203419826    0.1218209466991379    0.1190282370599665 Se
   0.6122624953262783    0.3799802531345772    0.6201241436582257 Se
   0.6155264482778020    0.1170103805457791    0.8849086957434366 Se
   0.3836776639105217    0.3814446828703122    0.3819937342758496 Se
   0.3690542964380185    0.1360662266036560    0.6326539939879653 Se
   0.1328992039628341    0.8671627697721128    0.1329211837194924 Se
   0.1339072113593391    0.1321956037141386    0.8667680287554377 Se
   0.3679733570998491    0.8683826812350441    0.3673498193219275 Se
   0.3803158037469542    0.6183028273693886    0.6198695323980438 Se
   0.6208034369471488    0.8886691355897792    0.1206189240598562 Se
   0.6171456593030935    0.6161550665020340    0.3791809902970956 Se
   0.3797720345031610    0.8823461805106623    0.8810380339899768 Se
   0.3616419431758439    0.6348485967694218    0.1357396047187013 Se
   0.1324351888342120    0.3682422838299956    0.6353124454639144 Se
   0.1336650866461333    0.6340599376279651    0.3676623043131766 Se
   0.3703536340631974    0.3672956456492951    0.8622063929307786 Se
   0.8835575839725915    0.1184730004198266    0.6194064650139126 Se
   0.1224487151593147    0.3836624578013584    0.1135493954141824 Se
   0.1170476467338865    0.1177643284756325    0.3871031365399683 Se
   0.8795572616553682    0.3852605548963769    0.8871428873566012 Se
   0.8696078715307972    0.1288074356759523    0.1377325658172090 Se
   0.6329788148458101    0.8671913829009162    0.6329086000580172 Se
   0.6333607125501696    0.1323855384661927    0.3675966816111249 Se
   0.8690534393748236    0.8665508700800947    0.8671799688661386 Se
   0.8870811703863404    0.6175804994326811    0.1145032455353558 Se
   0.1164764538618688    0.8862258780665738    0.6180473772401905 Se
   0.1179286229898662    0.6154628144391266    0.8809056576744927 Se
   0.8821237130005892    0.8863065510059204    0.3862269841998857 Se
   0.8648450543372694    0.6326675493081106    0.6300999216126146 Se
   0.6349152489998310    0.3680044309655182    0.1314897418609738 Se
   0.6295617961377287    0.6334283400054019    0.8682057467433137 Se
   0.8692361250900990    0.3652544252185467    0.3672024695586338 Se
