Mg7 Sc16 Se32
1.0
  11.1003847944368736    0.0000000000000000    0.0000000000000000
   0.0000000000000000   11.1003847944368736    0.0000000000000000
  -0.0000000000000000   -0.0000000000000000   11.1003847944368736
Mg Sc Se
7 16 32
direct
   0.1663869237962050    0.2928472033313509    0.2129769141951491 Mg
   0.2476988417959690    0.7512242863226727    0.7461876278135113 Mg
   0.5039540801505350    0.4996399392525941    0.9981746675931663 Mg
   0.7542461737718105    0.2453446405537349    0.7561867397763302 Mg
   0.9991035420818510    0.0014917999849491    0.9989154672924204 Mg
   0.7673653442648662    0.7459913892638407    0.2558498712013093 Mg
   0.0076981732487015    0.4845589596262334    0.5010029855396610 Mg
   0.1253389346652616    0.8733229265277471    0.3751240404548258 Sc
   0.3829143442199148    0.1091666581735467    0.8783067367599581 Sc
   0.3760718777537593    0.3736930174032160    0.6251060211998143 Sc
   0.1309550694398015    0.1243707273631226    0.6195116253190481 Sc
   0.1180872875558399    0.3765648819720850    0.8567835777395749 Sc
   0.3829187661172179    0.6351509157166242    0.3874665535061186 Sc
   0.3742127360744171    0.8697700670594343    0.1270596394041336 Sc
   0.1252230602389020    0.6327443943449093    0.1196780214697553 Sc
   0.6216077487990780    0.8737408839513092    0.8746907670940904 Sc
   0.8752528458685052    0.1205279575543181    0.3762222485040529 Sc
   0.8696863773763415    0.3670160294545705    0.1419763106552198 Sc
   0.6285891020096844    0.1296763372926605    0.1317202571337695 Sc
   0.6269259921997438    0.3679473108817264    0.3783906915967280 Sc
   0.8754626534852492    0.6261730781154874    0.8778462094437369 Sc
   0.8669391915875908    0.8768570978744779    0.6306693440958493 Sc
   0.6322397621908981    0.6235212542849984    0.6323668473294357 Sc
   0.3763719589583973    0.1107324315224300    0.1244989690412064 Se
   0.6045993923634241    0.3792426391150894    0.6092229000577294 Se
   0.6348656007194033    0.1167162265279583    0.8726293687364305 Se
   0.3824396466246607    0.3795695587365943    0.3751378658032121 Se
   0.3601288799949426    0.1495189190152856    0.6296639817862186 Se
   0.1335306321365794    0.8688868455699109    0.1450518998984393 Se
   0.1344910750456275    0.1198343002469156    0.8660181258074441 Se
   0.3706518272611173    0.8675678173942175    0.3508097247352007 Se
   0.3768637814841346    0.6173919845960545    0.6178987895343966 Se
   0.6169294543415765    0.8830181537591425    0.1170113115576318 Se
   0.6107441681944342    0.6336361560641784    0.3889441555194063 Se
   0.3777167519080224    0.8835259611803599    0.8899380204704527 Se
   0.3501202739786555    0.6229553674206449    0.1375273458735838 Se
   0.1329213362228379    0.3669633452203509    0.6337030629243608 Se
   0.1358299849551668    0.6265205177592218    0.3697201029432342 Se
   0.3691487828769593    0.3668613396333346    0.8675829774268715 Se
   0.8844654338961130    0.1197307402272129    0.6193403899732738 Se
   0.1152633907106465    0.3799793511153093    0.1166601136464690 Se
   0.1135836207871459    0.1097738270173142    0.3777049221860808 Se
   0.8798980369459807    0.3866430650724828    0.8797429075614771 Se
   0.8682755410500800    0.1311917515332118    0.1285400865589562 Se
   0.6277265174718246    0.8833769827343967    0.6296712217612845 Se
   0.6341919389644241    0.1314751374822643    0.3683013101916454 Se
   0.8634817067879378    0.8735732767145519    0.8662240889837303 Se
   0.8727317254343753    0.6066407834055967    0.1122871054735540 Se
   0.1174581994880963    0.8832831254837966    0.6159840007022128 Se
   0.1312579022820775    0.6267787474591637    0.8895418298382909 Se
   0.8799675362699604    0.8985470716895410    0.3840522243339154 Se
   0.8689972735029298    0.6297275788504074    0.6412729592394447 Se
   0.6280279091453597    0.3584041036145537    0.1274929887694755 Se
   0.6334757801908225    0.6236789515502444    0.8490851213653438 Se
   0.8553996132051523    0.3705622994746032    0.3622393288725758 Se
