Mg7 Sc16 Se32
1.0
  11.1003847944368736    0.0000000000000000    0.0000000000000000
   0.0000000000000000   11.1003847944368736    0.0000000000000000
  -0.0000000000000000   -0.0000000000000000   11.1003847944368736
Mg Sc Se
7 16 32
direct
   0.4954269917019324    0.9921414216177432    0.5029973000404302 Mg
   0.2509321731139282    0.7473759466239115    0.7446292592719317 Mg
   0.4935705129489920    0.5084179733088272    0.9955853013360605 Mg
   0.7493768225705255    0.2498632377010994    0.7510837408268526 Mg
   0.1734568775239609    0.2761500859785408    0.2404692042367431 Mg
   0.7561327731439349    0.7560236339298301    0.2591530754762069 Mg
   0.0020964835097840    0.5003526823546014    0.4917772509536324 Mg
   0.1293426846309823    0.8856831313506393    0.3693715175556249 Sc
   0.3752524371999427    0.1231619177297260    0.8819930891826482 Sc
   0.3728681749232621    0.3709640473800021    0.6270876704966953 Sc
   0.1335505465012323    0.1225228964463836    0.6242324875056280 Sc
   0.1316856391810955    0.3685358545350543    0.8657475644465631 Sc
   0.3778949325542344    0.6155377776812359    0.3719053383654521 Sc
   0.3773615180984539    0.8762523724514786    0.1245375097626672 Sc
   0.1325621025372427    0.6264969374961414    0.1298886700383962 Sc
   0.6172875573974553    0.8688204052777155    0.8780922537281403 Sc
   0.8697008917158195    0.1214102107868173    0.3723234574116360 Sc
   0.8750788934465694    0.3749504940252004    0.1249754308468390 Sc
   0.6202081720958440    0.1288664083042117    0.1258137922046932 Sc
   0.6247579499015286    0.3749778098349333    0.3742671682665193 Sc
   0.8744683485320947    0.6328331815765761    0.8737414237019309 Sc
   0.8873820146357446    0.8761364179789344    0.6203860749527320 Sc
   0.6319633534399949    0.6309660839061816    0.6171083607970537 Sc
   0.3817467582322208    0.1181196512584303    0.1175221050232066 Se
   0.6261039025330687    0.3853489423297959    0.6237399941473082 Se
   0.6130000795339298    0.1196880270835323    0.8914195007786665 Se
   0.3825897021764283    0.3839195435344290    0.3835223043352989 Se
   0.3622080664619864    0.1390020707949526    0.6331522320971636 Se
   0.1422064523213195    0.8742632649274715    0.1406988622311506 Se
   0.1410499259295945    0.1386082780629383    0.8647758492366645 Se
   0.3608433197488533    0.8757506583631344    0.3637513864505633 Se
   0.3805539418249477    0.6144635520495426    0.6173372703180426 Se
   0.6227818610963456    0.8864929159687648    0.1141078449495249 Se
   0.6035829745547051    0.6177802029772477    0.3826536521279832 Se
   0.3777224336506458    0.8778244120605837    0.8825869705750832 Se
   0.3638348180406613    0.6246170115370803    0.1398207268579591 Se
   0.1302743716534051    0.3742496653939148    0.6230220939454548 Se
   0.1348760919194745    0.6337349728105720    0.3807343218421332 Se
   0.3754682182025209    0.3616208510752374    0.8633193586424618 Se
   0.8843380817041662    0.1176267858182241    0.6132794751485783 Se
   0.1216958993183083    0.3841990566999042    0.1042422797180262 Se
   0.1243706058028981    0.1253989375538988    0.3891865496258640 Se
   0.8814999313504632    0.3833972119912337    0.8875740844669993 Se
   0.8719613435468831    0.1367724821341955    0.1250501220675765 Se
   0.6262414654628006    0.8561913944253877    0.6333029216982374 Se
   0.6432551805672988    0.1392055382088624    0.3658773086143841 Se
   0.8668187887595566    0.8615450389581106    0.8770629284138387 Se
   0.8899779588750701    0.6201962501591488    0.1249285930109617 Se
   0.1157952319364248    0.8890384205406869    0.6122939405289912 Se
   0.1223020734003451    0.6149467013026008    0.8928889303053009 Se
   0.8732297800399562    0.8825929249445975    0.3925226176309142 Se
   0.8682294358385473    0.6340555393544666    0.6331315604187457 Se
   0.6365536778820272    0.3714673389166272    0.1294214417356313 Se
   0.6319103832971624    0.6248454748500500    0.8779111520432280 Se
   0.8637650905982032    0.3601751219332091    0.3661807803069379 Se
