Mg7 Sc16 Se32
1.0
  11.1003847944368736    0.0000000000000000    0.0000000000000000
   0.0000000000000000   11.1003847944368736    0.0000000000000000
  -0.0000000000000000   -0.0000000000000000   11.1003847944368736
Mg Sc Se
7 16 32
direct
   0.4990804659406801    0.9982851634519431    0.4987682094113301 Mg
   0.2542595755291071    0.7491046225111798    0.7479278142411809 Mg
   0.2762844367952062    0.3225285585991879    0.1500510598578911 Mg
   0.7448357534983600    0.2488960237922636    0.7485323944644835 Mg
   0.0049377905354186    0.9970086304426565    0.0022935173813574 Mg
   0.7502146268742150    0.7527880307803225    0.2440930683051983 Mg
   0.0009059008580828    0.5000026683605109    0.4976991120247045 Mg
   0.1254912778799816    0.8744533108927314    0.3756328450442244 Sc
   0.3702484393751466    0.1224063818921148    0.8737837629433911 Sc
   0.3740742597117181    0.3716975678600091    0.6263412331649518 Sc
   0.1259217605243540    0.1271087858415034    0.6249017560153950 Sc
   0.1222438085317079    0.3731640344524740    0.8743306443060682 Sc
   0.3748224007107759    0.6253439843625562    0.3752082052508282 Sc
   0.3754838536471705    0.8748239624494055    0.1255584206246859 Sc
   0.1216725544548750    0.6263280518619571    0.1205794107038386 Sc
   0.6287872822166486    0.8714796619720395    0.8773577877065533 Sc
   0.8724822043916420    0.1246450051935109    0.3717872050364057 Sc
   0.8755570363362116    0.3774177638031171    0.1191674855930151 Sc
   0.6249399073614410    0.1248474308540683    0.1251276684948352 Sc
   0.6212693181146798    0.3738594360230037    0.3750346033689776 Sc
   0.8746941418366420    0.6282666361960890    0.8742223677806598 Sc
   0.8728960317375908    0.8752224345978468    0.6237970537123524 Sc
   0.6247018372139203    0.6257926014785407    0.6217342863154200 Sc
   0.3839891492830434    0.1185557223101461    0.1180970280517394 Se
   0.6163328782351516    0.3856477427054714    0.6156788062107226 Se
   0.6195041690188224    0.1124051424790311    0.8878688739912191 Se
   0.3821520391071374    0.3884465639416533    0.3780074761809446 Se
   0.3664456436397781    0.1334299249920816    0.6329192397247154 Se
   0.1282475831156672    0.8695242514080803    0.1323543992478097 Se
   0.1336362976074532    0.1390814712481475    0.8700457687992970 Se
   0.3659376371614203    0.8656930825643445    0.3683285060717006 Se
   0.3800858058866664    0.6188553137002644    0.6167337177351039 Se
   0.6112182635711896    0.8794047327684953    0.1153277017255419 Se
   0.6142831931793495    0.6193389040059724    0.3763462456132760 Se
   0.3875550254783793    0.8823543150877587    0.8842161458677831 Se
   0.3643946811433458    0.6319217792503228    0.1339225932619301 Se
   0.1273599574662221    0.3647758286353252    0.6327531981770722 Se
   0.1287756142972067    0.6308133226393411    0.3677382947677214 Se
   0.3671810741655995    0.3668625264681155    0.8670843941563420 Se
   0.8841438231742135    0.1166967203687636    0.6202836645624016 Se
   0.1171849888341086    0.3826173015903203    0.1170095312836680 Se
   0.1152800807403946    0.1108493608428502    0.3828122188121250 Se
   0.8805223042958179    0.3844041706126622    0.8870083166547981 Se
   0.8682336643997339    0.1373494417491197    0.1321755387462319 Se
   0.6340870084125571    0.8651860670507538    0.6327388274613531 Se
   0.6305447406673619    0.1353830623719102    0.3663681365816648 Se
   0.8661356697161314    0.8656947931762272    0.8681215348905897 Se
   0.8768973455199908    0.6150526187555369    0.1128263247927997 Se
   0.1231468678864295    0.8839711150692645    0.6136534134119930 Se
   0.1172290589688245    0.6170518960559150    0.8829160657936672 Se
   0.8798587010297492    0.8794809198683770    0.3785214998737227 Se
   0.8646987350200468    0.6346178924831659    0.6331814895948485 Se
   0.6328575163669503    0.3671681416296018    0.1328392428250896 Se
   0.6338988066048356    0.6318944656729663    0.8637156383431087 Se
   0.8659901832332517    0.3737776591439633    0.3663517462971234 Se
