Mg7 Sc16 Se32
1.0
  11.1003847944368736    0.0000000000000000    0.0000000000000000
   0.0000000000000000   11.1003847944368736    0.0000000000000000
  -0.0000000000000000   -0.0000000000000000   11.1003847944368736
Mg Sc Se
7 16 32
direct
   0.4978747343479237    0.0037622270791924    0.5032310107224577 Mg
   0.2489071808691209    0.7470223118907126    0.7483173182154961 Mg
   0.5011738420700409    0.4997844409828889    0.0007920019331522 Mg
   0.7480936118866804    0.2503607859479586    0.7561768170689089 Mg
   0.2033769498776162    0.2893140165292978    0.2611019785569267 Mg
   0.7521438196272647    0.7501087417675272    0.2505071723329285 Mg
   0.0024202017430152    0.4991883331494120    0.4998774048859442 Mg
   0.1304279363933772    0.8745977631521742    0.3771476357297475 Sc
   0.3748340232726537    0.1191248112262368    0.8716524647900390 Sc
   0.3727891788528280    0.3766547367350297    0.6301675759113711 Sc
   0.1248102053133750    0.1249956478449008    0.6249515363425572 Sc
   0.1245670592851204    0.3746603733396788    0.8754481530166766 Sc
   0.3759256978892193    0.6275450338457391    0.3754148971497696 Sc
   0.3735599994365191    0.8752633096453244    0.1221648559085817 Sc
   0.1254351942078573    0.6187817888387703    0.1288928798199456 Sc
   0.6288403652730185    0.8761971862713586    0.8772234405796883 Sc
   0.8749176399748284    0.1208643730698969    0.3786191279602849 Sc
   0.8742559171857290    0.3782070280754323    0.1252101649129901 Sc
   0.6244659372750104    0.1225029269071017    0.1287690557497841 Sc
   0.6221636861011263    0.3729970465197795    0.3748299855136694 Sc
   0.8771892508979688    0.6266648636196661    0.8795502939200104 Sc
   0.8777601925436200    0.8792704779586310    0.6247544334685734 Sc
   0.6234745512809626    0.6243399529672461    0.6267622165998710 Sc
   0.3812460052468895    0.1135190758035513    0.1141258923813655 Se
   0.6171041967479026    0.3818512200501305    0.6149992027819373 Se
   0.6158880886564599    0.1153443523981567    0.8811353664788463 Se
   0.3806615184665921    0.3759081080512843    0.3823908324251055 Se
   0.3690601139621534    0.1337618538795069    0.6272934427304813 Se
   0.1357523432453786    0.8642907312088443    0.1392929436696466 Se
   0.1348506348960065    0.1313780564960231    0.8676953583285791 Se
   0.3690011758110328    0.8635437306645638    0.3649333143010323 Se
   0.3864900383371193    0.6210598197453673    0.6169924583072534 Se
   0.6194914252206775    0.8790010222365938    0.1146626759703393 Se
   0.6126028343141930    0.6142376001014515    0.3812879992096913 Se
   0.3853084251915004    0.8833628342759724    0.8846509208560174 Se
   0.3732457446804159    0.6302526137504869    0.1328835227579424 Se
   0.1310580720377538    0.3656637951986521    0.6311724527054543 Se
   0.1328541973606081    0.6337839380688652    0.3664233493687539 Se
   0.3669518210648659    0.3675603181745918    0.8706268458263818 Se
   0.8811962518398349    0.1179517043223530    0.6152605052848512 Se
   0.1137932390072781    0.3787889973500462    0.1184915367629156 Se
   0.1121327722062911    0.1193613884912123    0.3827996159775364 Se
   0.8857384230731861    0.3862512968747743    0.8855127617133515 Se
   0.8690538428461088    0.1277953966687976    0.1325217090134970 Se
   0.6355080975850392    0.8678585345649867    0.6372174362849276 Se
   0.6312179824434109    0.1316198598772234    0.3660825130691083 Se
   0.8671007264324651    0.8712934547379342    0.8635909690909129 Se
   0.8818768406705128    0.6165822553685604    0.1177207943467528 Se
   0.1206642967280882    0.8862076105335082    0.6187298477328589 Se
   0.1195539037036477    0.6178853836277965    0.8808388147442476 Se
   0.8782890173386192    0.8819719257867225    0.3874344400955471 Se
   0.8685053225532410    0.6394273412059417    0.6330883972483995 Se
   0.6346503510637470    0.3681735380464450    0.1337864198193550 Se
   0.6343719988827687    0.6337881122753395    0.8675301673247181 Se
   0.8682630807204724    0.3664640573575432    0.3716175538118585 Se
