Mg7 Sc16 Se32
1.0
  11.1003847944368736    0.0000000000000000    0.0000000000000000
   0.0000000000000000   11.1003847944368736    0.0000000000000000
  -0.0000000000000000   -0.0000000000000000   11.1003847944368736
Mg Sc Se
7 16 32
direct
   0.5003327238955123    0.9981770634519607    0.4998560055293674 Mg
   0.2449876919866200    0.7532127555063105    0.7513467842040961 Mg
   0.1995607368077934    0.2221329266874384    0.2647478024708057 Mg
   0.7509185288857266    0.2487957693039987    0.7499910132361505 Mg
   0.9997703210223564    0.9952589140995690    0.0014717413185842 Mg
   0.7443079353295267    0.7487585840176235    0.2498478782310824 Mg
   0.0011988579491855    0.5077498246065510    0.5022039509327990 Mg
   0.1184025018920126    0.8725284632936898    0.3715832442245511 Sc
   0.3721665614133811    0.1248143262969950    0.8768288500465002 Sc
   0.3808148257143169    0.3732654821950372    0.6167679393232939 Sc
   0.1220710588643393    0.1233532033348410    0.6296046609098587 Sc
   0.1252931231437693    0.3752426856239719    0.8750492260640361 Sc
   0.3758298372260954    0.6349767013885087    0.3726644928363048 Sc
   0.3819371359589935    0.8705519487999442    0.1231785350793199 Sc
   0.1246835233338976    0.6284801315365262    0.1269907016221454 Sc
   0.6225517026404941    0.8750730138139745    0.8749892663237474 Sc
   0.8716596278586225    0.1247477867015661    0.3758643540427798 Sc
   0.8757522108007347    0.3760146807224953    0.1232868043108748 Sc
   0.6266245031819903    0.1169526349943492    0.1271715372151814 Sc
   0.6244152674832071    0.3693972905943927    0.3787022972917701 Sc
   0.8732425257741027    0.6228588777800840    0.8811706087846730 Sc
   0.8772489414717595    0.8762719281226442    0.6315238862668480 Sc
   0.6258082740692993    0.6296739406331395    0.6328462545817574 Sc
   0.3858771414444904    0.1138435684669377    0.1203698685641436 Se
   0.6179706662270316    0.3766400558126206    0.6222790004107946 Se
   0.6174686615908138    0.1179504003720821    0.8844045932285953 Se
   0.3820435915575708    0.3813151178328590    0.3832578891741118 Se
   0.3636802873458497    0.1377017603965480    0.6350817279036967 Se
   0.1360211411150535    0.8636918292619794    0.1251754082529530 Se
   0.1396890138307635    0.1307522004030091    0.8736041234231819 Se
   0.3681031046348910    0.8653310732563225    0.3672703678406674 Se
   0.3833545211437687    0.6138118491579189    0.6247881846553079 Se
   0.6126033444669202    0.8867027818814704    0.1186569052411127 Se
   0.6187800966712521    0.6177195443850521    0.3810844607840055 Se
   0.3832485216901071    0.8821149980426886    0.8810327701272667 Se
   0.3719124764580079    0.6357679057456964    0.1308700642530629 Se
   0.1324980650296764    0.3661348078208672    0.6322211105760392 Se
   0.1290969334159705    0.6311986229365726    0.3678331763494065 Se
   0.3603066016658222    0.3709694494490803    0.8673846755261826 Se
   0.8819906461237780    0.1156296857908190    0.6269700822199359 Se
   0.1181867606178917    0.3824458048534535    0.1163924446834507 Se
   0.1137164136375924    0.1096106743585259    0.3779754489563869 Se
   0.8831358139462212    0.3817534568179694    0.8835257679813853 Se
   0.8665097243641038    0.1278007246188199    0.1305750301392237 Se
   0.6269900971772470    0.8720091491676557    0.6391601442654768 Se
   0.6334852384347198    0.1398260071441931    0.3591564761929741 Se
   0.8629276788145724    0.8711145984097102    0.8647872584057017 Se
   0.8820164616283100    0.6161290977102869    0.1139310268478727 Se
   0.1143998858160920    0.8739046215015105    0.6227444624361683 Se
   0.1150723089428938    0.6210302384812255    0.8844019737576359 Se
   0.8842622414645890    0.8850661118031390    0.3831616450956531 Se
   0.8693019697868740    0.6358899813687855    0.6315569043221043 Se
   0.6258486340477550    0.3601951414601895    0.1322358792851477 Se
   0.6334512099092026    0.6332076017904388    0.8678767182095688 Se
   0.8668643181792577    0.3678040324286184    0.3673694526485489 Se
