Mg7 Sc16 Se32
1.0
  11.1003847944368736    0.0000000000000000    0.0000000000000000
   0.0000000000000000   11.1003847944368736    0.0000000000000000
  -0.0000000000000000   -0.0000000000000000   11.1003847944368736
Mg Sc Se
7 16 32
direct
   0.4020864349989287    0.1162718275016775    0.3802167971555355 Mg
   0.2552111158764703    0.7697187751493711    0.7448165862198529 Mg
   0.4966837411576817    0.4977444048224178    0.0017813241859347 Mg
   0.7402925905829065    0.2482964871257781    0.7538955664806355 Mg
   0.0128702988826630    0.0074925205000875    0.9996422873216906 Mg
   0.7521853161944702    0.7504771101866762    0.2493686568302088 Mg
   0.9978916829667999    0.4946790131119456    0.4917851645015061 Mg
   0.1240245180026994    0.8777813114356560    0.3736954840852398 Sc
   0.3750733870157898    0.1253391986056102    0.8769092127845567 Sc
   0.3617425065835806    0.3679946283400390    0.6064691448391324 Sc
   0.1256922276046439    0.1317561379812252    0.6217240939507304 Sc
   0.1440862380306001    0.3611364731928467    0.8730038854010915 Sc
   0.3808452511022948    0.6276753884508169    0.3788126975186668 Sc
   0.3659249976376604    0.8775264196387138    0.1145409034824490 Sc
   0.1258642987840582    0.6250996012661406    0.1254060654569698 Sc
   0.6242270574210470    0.8765448628946494    0.8759563806455952 Sc
   0.8805274259615281    0.1259466778039927    0.3641249256532255 Sc
   0.8726705666703269    0.3759434047680866    0.1245407128127349 Sc
   0.6102710193686277    0.1230937583425616    0.1173061071104242 Sc
   0.6138684436107024    0.3818105849103396    0.3704671975921266 Sc
   0.8790303262581318    0.6259384540380658    0.8784823870968034 Sc
   0.8820755172953482    0.8730831135117041    0.6439326268999350 Sc
   0.6238596027635445    0.6250035610833435    0.6281480091005353 Sc
   0.3859045131870754    0.1193876973090968    0.1150998135338755 Se
   0.6063329202156361    0.3706342051102592    0.6125796766514157 Se
   0.6181254145932537    0.1127693985266865    0.8803498274022016 Se
   0.3716446714034989    0.3769632694131841    0.3808831011846895 Se
   0.3722017301921273    0.1453653310676614    0.6158536853508754 Se
   0.1378468209759936    0.8639777539849025    0.1434809122685319 Se
   0.1329716777188064    0.1357622855544993    0.8711985944434759 Se
   0.3708169878634370    0.8610597010024538    0.3751487171320103 Se
   0.3850159943068013    0.6168771274704256    0.6169503208554707 Se
   0.6311527107279921    0.9001747934263481    0.1284888713388299 Se
   0.6278723800955752    0.6136141508436658    0.3936696234634965 Se
   0.3834777205153513    0.8837157234821207    0.8831351176984800 Se
   0.3792345108585385    0.6482312563693444    0.1457853416537382 Se
   0.1340823108239856    0.3675017283849996    0.6313686047517902 Se
   0.1448733935377177    0.6271620034727425    0.3663808362688127 Se
   0.3836720870270711    0.3606990708446349    0.8658744247515768 Se
   0.8602296100509728    0.1206463798398874    0.6119370450952690 Se
   0.1131310040053124    0.3869626127702023    0.1204072891591376 Se
   0.1176729855818572    0.1142279558011457    0.3763078032949352 Se
   0.8817269282995588    0.3868693396878346    0.8641161900007882 Se
   0.8796871054131550    0.1253185173071157    0.1216766080906239 Se
   0.6432717002064613    0.8595703353178030    0.6410284252679249 Se
   0.6305690299774542    0.1313117250014751    0.3755339410287236 Se
   0.8675477375032011    0.8702093206488267    0.8715628733897047 Se
   0.8856249037232304    0.6231608416262443    0.1314120861042721 Se
   0.1179551600173685    0.8846582857244201    0.6103747360958492 Se
   0.1187187139659425    0.6181341835475901    0.8821510531488238 Se
   0.8844574897195043    0.8776365613353244    0.3882597922851988 Se
   0.8598587445397440    0.6330122952900542    0.6151025643966290 Se
   0.6276490529505354    0.3627078261396083    0.1272250082515203 Se
   0.6164492299822609    0.6301582787345497    0.8655429742694384 Se
   0.8691098524141502    0.3656603193688951    0.3676105881961202 Se
