Mg7 Sc16 Se32
1.0
  11.1003847944368736    0.0000000000000000    0.0000000000000000
   0.0000000000000000   11.1003847944368736    0.0000000000000000
  -0.0000000000000000   -0.0000000000000000   11.1003847944368736
Mg Sc Se
7 16 32
direct
   0.4983970341766880    0.0011930223653527    0.4991610336058678 Mg
   0.2630061364892209    0.7552789499287296    0.7351596190280080 Mg
   0.1926297797132474    0.2177682989384442    0.2633409620738877 Mg
   0.7462979236977787    0.2345978610853810    0.7650291898764705 Mg
   0.0081056821826767    0.9936448858554190    0.0125994583788660 Mg
   0.7530351934150328    0.7654759951290397    0.2533941531455405 Mg
   0.9871484139728619    0.4931213653926099    0.4883804159669273 Mg
   0.1288661913730042    0.8645099654609831    0.3706256926103829 Sc
   0.3858036652520015    0.1317614690004205    0.8597445429406940 Sc
   0.3749107249853893    0.3762998171168663    0.6289613351690493 Sc
   0.1192330908527932    0.1153247338269763    0.6173661461230324 Sc
   0.1261010061772375    0.3817933834155406    0.8804050116801156 Sc
   0.3793021272615921    0.6213543315119576    0.3725902479603914 Sc
   0.3734679846905989    0.8767422659929014    0.1268243156935314 Sc
   0.1237406671900876    0.6211155669440437    0.1390128836628151 Sc
   0.6325656224784799    0.8739391510894795    0.8678821937222364 Sc
   0.8643731898467070    0.1182224388136893    0.3851117994487169 Sc
   0.8760292488842295    0.3767186260134548    0.1261399762433466 Sc
   0.6264687742353903    0.1239004582416549    0.1177722335240744 Sc
   0.6394337111912130    0.3772045005936414    0.3815146778351575 Sc
   0.8832682289505359    0.6395889658445569    0.8904310896433262 Sc
   0.8583917433018100    0.8719234082911568    0.6105653913256781 Sc
   0.6249431826763325    0.6307402071675329    0.6309436098090166 Sc
   0.3827284086710677    0.1287067917170990    0.1357675542897899 Se
   0.6094227578704291    0.3722362234360744    0.6063971882790671 Se
   0.6053984727802335    0.1096945439407462    0.9019078026446086 Se
   0.3691393858137594    0.3928588043010775    0.3882727280700598 Se
   0.3459982124421441    0.1259340400284512    0.6363486230818931 Se
   0.1203992976511684    0.8748490226877164    0.1431740171929241 Se
   0.1132156245358545    0.1217272368537561    0.8743079073611617 Se
   0.3683849163820693    0.8684576485055684    0.3613004625056350 Se
   0.3832940023398789    0.6067478820622763    0.6127246832316464 Se
   0.6209945277937946    0.8883009678092543    0.1150635521569820 Se
   0.6355706907361457    0.6160318777439812    0.3929837032957427 Se
   0.3863750927990676    0.8883345387068242    0.8906684489257867 Se
   0.3728612159938128    0.6387620376718576    0.1385558989264981 Se
   0.1417676795939488    0.3599069769447160    0.6400218729394042 Se
   0.1143115532240190    0.6360097525125405    0.3795113269944604 Se
   0.3678657721770969    0.3681141140429751    0.8651950932568911 Se
   0.8833463648282857    0.1033546010335806    0.6114543410002290 Se
   0.1156670683071373    0.3796188828027947    0.1334729002644156 Se
   0.1110883689219063    0.1206273520606152    0.3727135043890257 Se
   0.8774059504101867    0.3979563099670491    0.8684084497848700 Se
   0.8804210175162114    0.1326219940495320    0.1194531144000782 Se
   0.6342753170437814    0.8658932950579570    0.6330964255522342 Se
   0.6163990996895046    0.1394898962839454    0.3761507614081789 Se
   0.8727227301689232    0.8579136005491512    0.8747707808838215 Se
   0.8767342937562100    0.6010988984889850    0.1070854276936224 Se
   0.1169957428237272    0.8828510803287714    0.6173762500924664 Se
   0.1212576791474204    0.6277583863856208    0.8744911709853624 Se
   0.8818839686794403    0.8818781614556745    0.3851947736996211 Se
   0.8672920281311837    0.6330913473470113    0.6330897754840989 Se
   0.6356363640309781    0.3750585521750470    0.1534508781194805 Se
   0.6263785820368768    0.6320429025724307    0.8654111126354084 Se
   0.8613335692397422    0.3752088070334743    0.3613303921901028 Se
