Mg7 Sc16 Se32
1.0
  11.1003847944368736    0.0000000000000000    0.0000000000000000
   0.0000000000000000   11.1003847944368736    0.0000000000000000
  -0.0000000000000000   -0.0000000000000000   11.1003847944368736
Mg Sc Se
7 16 32
direct
   0.4989050044587531    0.9997086069005995    0.5004028190666604 Mg
   0.2456302162283776    0.7534494434693411    0.7471009379357427 Mg
   0.4651455228074693    0.4590308771721922    0.0314618981950395 Mg
   0.7518688615172585    0.2500343122691776    0.7511020154508121 Mg
   0.0071033161601289    0.0022957673211619    0.0002746934421456 Mg
   0.7519024448924896    0.7439675573424706    0.2488797475373933 Mg
   0.0001516761655737    0.4999158264034944    0.4999088264772970 Mg
   0.1247388882123329    0.8746998937702403    0.3750925436252446 Sc
   0.3761438949889089    0.1214391786541242    0.8795023078657599 Sc
   0.3718495455821899    0.3745600255309223    0.6227558328648527 Sc
   0.1260561851892523    0.1245808759604932    0.6258675740164114 Sc
   0.1256621655054595    0.3732051609011736    0.8693590665360789 Sc
   0.3695502910280896    0.6267025014803195    0.3751757825299014 Sc
   0.3734635987305534    0.8760119129937428    0.1253880175896166 Sc
   0.1278867909062760    0.6255860396197440    0.1275633310784995 Sc
   0.6253981596562189    0.8766422822764817    0.8754680076497213 Sc
   0.8751013567147879    0.1229432839375985    0.3714903266461816 Sc
   0.8816589298485303    0.3781262741930804    0.1256817771374537 Sc
   0.6255715357913006    0.1254286359238543    0.1237672583562788 Sc
   0.6247403814777074    0.3761312944954378    0.3746923550817323 Sc
   0.8783566156383015    0.6244451793588488    0.8760274551604493 Sc
   0.8771944818783642    0.8817899467176017    0.6259247122791016 Sc
   0.6243588097738617    0.6270114915644774    0.6259663661954799 Sc
   0.3819033271645313    0.1166377272356834    0.1182285891564951 Se
   0.6175380329399837    0.3808655490910282    0.6187441289557938 Se
   0.6154012283149196    0.1138332441430792    0.8842378151215099 Se
   0.3822815001480478    0.3828835510552043    0.3833652890226793 Se
   0.3679689824086812    0.1318969772002663    0.6299571181713960 Se
   0.1332094157936352    0.8683914420790833    0.1326308236997284 Se
   0.1290027033347253    0.1307823117204309    0.8635679567832224 Se
   0.3640443130054988    0.8648411582838205    0.3648820159533858 Se
   0.3829333885787954    0.6161802640909628    0.6163543577527750 Se
   0.6150414875252165    0.8867464195781825    0.1175175814550233 Se
   0.6144687411485298    0.6185789310393534    0.3842496190284729 Se
   0.3826782060902607    0.8814659999598458    0.8833768799199235 Se
   0.3624643817899546    0.6312105948868423    0.1281044494865125 Se
   0.1335497437545908    0.3681597631830248    0.6362730380736924 Se
   0.1390008607924552    0.6350732148622081    0.3667468282573320 Se
   0.3676674100856435    0.3691234840725930    0.8666867141626037 Se
   0.8838083159271013    0.1169271010820078    0.6172294110558900 Se
   0.1168328005668203    0.3832619396295883    0.1185542021022503 Se
   0.1171458330177076    0.1172564934463040    0.3829166529635584 Se
   0.8872736381718052    0.3808943393459816    0.8843441851912841 Se
   0.8633268100332051    0.1309053224239396    0.1353767442071288 Se
   0.6323580592248508    0.8647605309468251    0.6292788221799948 Se
   0.6303448015380175    0.1308440709948429    0.3650044128688890 Se
   0.8652885807069249    0.8699664842037956    0.8654861175966919 Se
   0.8829186761152014    0.6185351678194380    0.1234447659570401 Se
   0.1223727310898329    0.8874320563192347    0.6165162076860332 Se
   0.1103652603941516    0.6196200008709356    0.8815075902091161 Se
   0.8806505199039940    0.8844530926900611    0.3827929491312558 Se
   0.8680618813588670    0.6372668505913114    0.6354878075407840 Se
   0.6282723097336428    0.3718610806367800    0.1318288404459552 Se
   0.6310629391131594    0.6281056764612750    0.8657912897589787 Se
   0.8699178602337165    0.3624183116512514    0.3683783236919667 Se
