Mg7 Sc16 Se32
1.0
  11.1003847944368736    0.0000000000000000    0.0000000000000000
   0.0000000000000000   11.1003847944368736    0.0000000000000000
  -0.0000000000000000   -0.0000000000000000   11.1003847944368736
Mg Sc Se
7 16 32
direct
   0.4971335783704915    0.9989290337556230    0.5040800706225137 Mg
   0.2386787704519963    0.7415108650360697    0.7421181559194026 Mg
   0.3725670511361125    0.4042048767157562    0.0800595765952608 Mg
   0.7531002058203812    0.2521258188457288    0.7536823689347856 Mg
   0.0125155339248063    0.0079182426884221    0.0092731518051140 Mg
   0.7462487944582424    0.7542696191453437    0.2507563922545215 Mg
   0.9992173848482553    0.4897748295923846    0.4995895898466435 Mg
   0.1294462515479735    0.8655414035052792    0.3816516262301279 Sc
   0.3879498923414436    0.1217249784334384    0.8883210935538037 Sc
   0.3744691741442474    0.3739893906582896    0.6250393765396560 Sc
   0.1233323441080748    0.1160373692013236    0.6307517985765431 Sc
   0.1265992280798314    0.3735237825835815    0.8765376464882361 Sc
   0.3810614251491505    0.6071024392593132    0.3771347345852895 Sc
   0.3844963426110186    0.8655102649612295    0.1134447807243570 Sc
   0.1095906074380265    0.6173773039070494    0.1175850182226021 Sc
   0.6173499344770503    0.8625832083487187    0.8820343050381397 Sc
   0.8807218059646454    0.1276389027431304    0.3833052878563319 Sc
   0.8690280096674444    0.3705785672189898    0.1210884679038166 Sc
   0.6255940771854008    0.1291135820507893    0.1236842413733887 Sc
   0.6304078953545786    0.3709600260221141    0.3748354291328120 Sc
   0.8764675935434867    0.6268067674685189    0.8760811289180572 Sc
   0.8770825616155561    0.8717531499189251    0.6195420639238779 Sc
   0.6173076385571711    0.6117287078804183    0.6233679706177050 Sc
   0.3795170395044070    0.1196519374989841    0.1181559578163973 Se
   0.6110393243728302    0.3719474246151444    0.6275366354548593 Se
   0.6186594663695437    0.1182273605687223    0.8830220067479814 Se
   0.3748713652517952    0.3907340985294690    0.3810341517232088 Se
   0.3616816945274815    0.1270118548004766    0.6457140680298531 Se
   0.1278101356568546    0.8645896711946878    0.1319367233499069 Se
   0.1473007890989821    0.1369267348134778    0.8577834893085109 Se
   0.3710080527341838    0.8651120122698273    0.3690011331401569 Se
   0.3697752544064460    0.6125622018628623    0.6072045707667730 Se
   0.6156349008756307    0.8797512599644053    0.1171748593235355 Se
   0.6184013417162209    0.6185258085445206    0.3807014100079855 Se
   0.3825459726077337    0.8822683743262887    0.8826312419568917 Se
   0.3816435453135952    0.6305236138359236    0.1451675603534781 Se
   0.1320372430262489    0.3694533282212660    0.6323084760562531 Se
   0.1328222928580886    0.6334352759276767    0.3656424673090226 Se
   0.3696386509026695    0.3728723796285219    0.8691165280516553 Se
   0.8827440613927251    0.1189481434414980    0.6156934824748049 Se
   0.1071689757999402    0.3836792227367075    0.1333546426381147 Se
   0.1015215320570188    0.1039389471972366    0.3838645671242911 Se
   0.8896637134523678    0.3869065982696994    0.8782155155233996 Se
   0.8762584165840143    0.1349182371075509    0.1280575480634948 Se
   0.6438104900217219    0.8670923796488310    0.6253460012129236 Se
   0.6458926328081241    0.1306630687427170    0.3758418238651366 Se
   0.8600091178004674    0.8624735706641952    0.8743437781154536 Se
   0.8876483241835629    0.6175396383516766    0.1097494624538356 Se
   0.1171645648440430    0.8828163213112600    0.6171525393527968 Se
   0.1174325191481845    0.6146127385862221    0.8871366342466680 Se
   0.8813764846961291    0.8841892647456193    0.3876501298375061 Se
   0.8613415924460354    0.6483904534301383    0.6380645013049169 Se
   0.6364861468886842    0.3642337472518498    0.1335715041425967 Se
   0.6304062541009859    0.6189969573569765    0.8659860094348487 Se
   0.8678586323997382    0.3606542155792021    0.3663431281781861 Se
