Mg7 Sc16 Se32
1.0
  11.1003847944368736    0.0000000000000000    0.0000000000000000
   0.0000000000000000   11.1003847944368736    0.0000000000000000
  -0.0000000000000000   -0.0000000000000000   11.1003847944368736
Mg Sc Se
7 16 32
direct
   0.4921058348043171    0.0018341657487488    0.5098888501616392 Mg
   0.2600340311094673    0.7468224375471433    0.7523308072015497 Mg
   0.3326004063281759    0.3003434389824484    0.1637966862574624 Mg
   0.7449668002699333    0.2566285924984562    0.7623906334690989 Mg
   0.9947162131840979    0.9984278948701679    0.9921642163628157 Mg
   0.7520885212230152    0.7541721605027177    0.2443476399635786 Mg
   0.9991416676917023    0.5000911903434639    0.4986210345419145 Mg
   0.1253806400470716    0.8750547013339367    0.3751775607851519 Sc
   0.3801506852520604    0.1083788863741822    0.8679289335277685 Sc
   0.3803833808250900    0.3906593167716205    0.6313656713315523 Sc
   0.1215551351692856    0.1276414018113527    0.6137862530753995 Sc
   0.1237190166799021    0.3678933601920654    0.8782272915912320 Sc
   0.3616597315365594    0.6106390936360119    0.3803865822766420 Sc
   0.3779684465687554    0.8718127850725124    0.1346999522621283 Sc
   0.1103368644820400    0.6243959386187522    0.1253984448422490 Sc
   0.6174188791927794    0.8884360876946545    0.8832621366271572 Sc
   0.8732618044661687    0.1232202472382042    0.3744451257784055 Sc
   0.8717725781798505    0.3678902649593460    0.1282051513117444 Sc
   0.6232573657960825    0.1234223115143491    0.1227416109469789 Sc
   0.6180323835858911    0.3711078205117220    0.3750474082414768 Sc
   0.8870415695894399    0.6364101634206859    0.8847109172313324 Sc
   0.8805798049370102    0.8833496512325146    0.6233369966226251 Sc
   0.6253962321504978    0.6254316377337319    0.6265620441886620 Sc
   0.3835970889136444    0.1199653400181887    0.1203904531137750 Se
   0.6304921434710304    0.3858765938920942    0.5988815269998400 Se
   0.6217961995181412    0.1104856476802790    0.8802341226620066 Se
   0.3718026764347686    0.3934227339975387    0.3843403763578701 Se
   0.3616494351239003    0.1441927768407054    0.6305891510001610 Se
   0.1331355080217802    0.8651463140904819    0.1386727940683275 Se
   0.1325099273291468    0.1327368198904117    0.8670321937918246 Se
   0.3723109013836918    0.8496631040880459    0.3569765079716720 Se
   0.3676563463308398    0.6271631417131459    0.6161193428552969 Se
   0.6173227149501225    0.8925415055143744    0.1082666243137541 Se
   0.6239709600875794    0.6251910979837029    0.3962809671278615 Se
   0.3723454300836072    0.8839114197429281    0.8958754966945557 Se
   0.3680979004706981    0.6343524439924351    0.1317486338064866 Se
   0.1171201169735482    0.3747142091666333    0.6365390767171327 Se
   0.1365129029930636    0.6334427326122811    0.3576425675661790 Se
   0.3801278492591093    0.3700435414661397    0.8677954643032810 Se
   0.8786544637088450    0.0988040151450240    0.6177728594202170 Se
   0.1220483392164194    0.3693624334246295    0.1311824986658680 Se
   0.1174177795828208    0.1208120194989048    0.3875482527935361 Se
   0.8917247792533940    0.3714856996912114    0.8928106822620351 Se
   0.8801155606205627    0.1332115669443977    0.1248954795937395 Se
   0.6424986332785173    0.8687635702378826    0.6390932556479972 Se
   0.6382170059907254    0.1508264640609343    0.3809713095838113 Se
   0.8622772745587759    0.8654665829514127    0.8662572111028600 Se
   0.8826623764269064    0.6178874697482269    0.1210304654200271 Se
   0.1137311816819356    0.8844470332351214    0.6145319976455702 Se
   0.1113701075112785    0.6147352082836268    0.8987248160230544 Se
   0.8870852094174148    0.8866716037953634    0.3850831797093549 Se
   0.8569487723573130    0.6405460567802920    0.6227240799637052 Se
   0.6378897632471692    0.3713911345804933    0.1283298995034383 Se
   0.6298550807108112    0.6382920860417403    0.8738642095434582 Se
   0.8671637923436266    0.3795930640715774    0.3682081606348507 Se
