Mg7 Sc16 Se32
1.0
  11.1003847944368736    0.0000000000000000    0.0000000000000000
   0.0000000000000000   11.1003847944368736    0.0000000000000000
  -0.0000000000000000   -0.0000000000000000   11.1003847944368736
Mg Sc Se
7 16 32
direct
   0.5015936097978468    0.9998797190803099    0.5006964233210307 Mg
   0.2503166254118520    0.7504264372254480    0.7500543274008954 Mg
   0.4984222318977565    0.5011039889071499    0.9994011874808000 Mg
   0.7505743381791858    0.2511787460865171    0.7483556923467909 Mg
   0.2513675486752548    0.2522252408342085    0.2490605906635889 Mg
   0.7499569512701447    0.7497678878549452    0.2500291790624548 Mg
   0.9999881923262596    0.5001445093478888    0.4999612818867092 Mg
   0.1266127851615135    0.8759662850043189    0.3711043675633119 Sc
   0.3777797795267311    0.1238548325800338    0.8728885788157051 Sc
   0.3772785260936399    0.3771973566061739    0.6230128832273159 Sc
   0.1276880654664009    0.1231442770072363    0.6250028962133587 Sc
   0.1253870894942840    0.3735319219407828    0.8747798890157307 Sc
   0.3727008890321949    0.6246038879999578    0.3778854108583896 Sc
   0.3755370329199734    0.8748711032286388    0.1248359169627057 Sc
   0.1251007665531250    0.6249501097921157    0.1250827517467554 Sc
   0.6251539246300972    0.8754585999500535    0.8745977701856190 Sc
   0.8742162319582290    0.1241583858245525    0.3753532443193767 Sc
   0.8729127438607049    0.3751840369725561    0.1278022780134730 Sc
   0.6246645746194316    0.1244649604101566    0.1233934175211075 Sc
   0.6246807386315006    0.3743875042778373    0.3736797577387557 Sc
   0.8759540489859940    0.6233552018320246    0.8786479767204464 Sc
   0.8751004017422677    0.8734851247027130    0.6248489142937121 Sc
   0.6248285725510552    0.6229451073409248    0.6212452302333310 Sc
   0.3826712478298133    0.1164775943750633    0.1153833140985859 Se
   0.6163684789309237    0.3825942944074024    0.6168367183007306 Se
   0.6145767436581602    0.1185752016957814    0.8834832504420456 Se
   0.3834294082801145    0.3839126038341115    0.3790571648762412 Se
   0.3656245356458164    0.1330527406688080    0.6306704190955446 Se
   0.1348234583697870    0.8697044415957709    0.1354208425314791 Se
   0.1340077328534099    0.1326507095615434    0.8663283143327138 Se
   0.3671458275283989    0.8670273303580177    0.3672907873329542 Se
   0.3795940435975422    0.6176844035698056    0.6173329078100028 Se
   0.6171219385815723    0.8808525228180802    0.1152373952001495 Se
   0.6207741322148265    0.6192871531283588    0.3835856126411817 Se
   0.3828617207502027    0.8833287467619751    0.8831987863861642 Se
   0.3683686987932426    0.6341906621616444    0.1324437702331427 Se
   0.1346882516414434    0.3685690186079211    0.6337222663547438 Se
   0.1320156960787997    0.6328055229757098    0.3679698299582954 Se
   0.3689059072062763    0.3671684808076290    0.8645139711827696 Se
   0.8798411737775911    0.1182569293704947    0.6200049239899633 Se
   0.1174362294024413    0.3820356996526691    0.1168010347765097 Se
   0.1170946581910838    0.1171214013319451    0.3828901461411623 Se
   0.8827526844963209    0.3833512540383867    0.8832296495255004 Se
   0.8664593277727917    0.1346029483881381    0.1330448069581277 Se
   0.6321103793644030    0.8693305539052308    0.6327796193771289 Se
   0.6328251044789598    0.1328998221600912    0.3670263830587749 Se
   0.8683387350436245    0.8690722015199207    0.8700289709559808 Se
   0.8839498994032687    0.6151548817365929    0.1173281977445354 Se
   0.1149945729612364    0.8828207096960843    0.6181629873110530 Se
   0.1146960968781273    0.6170237047793804    0.8801867533032075 Se
   0.8819453875357338    0.8826842877745731    0.3855868277205702 Se
   0.8658170610540703    0.6292529888829392    0.6322743660146731 Se
   0.6330298863104072    0.3660849817857408    0.1308794998783230 Se
   0.6316975233016073    0.6299357684166216    0.8660074179766190 Se
   0.8692243890201051    0.3681011621268089    0.3638444740435970 Se
