Mg7 Sc16 Se32
1.0
  11.1003847944368736    0.0000000000000000    0.0000000000000000
   0.0000000000000000   11.1003847944368736    0.0000000000000000
  -0.0000000000000000   -0.0000000000000000   11.1003847944368736
Mg Sc Se
7 16 32
direct
   0.5011830224003406    0.0010758785422046    0.4999424854698618 Mg
   0.2516219794164973    0.7521283619654123    0.7475290180770240 Mg
   0.4941479875339479    0.4988242288372042    0.9977256899246743 Mg
   0.7518399853734816    0.2510560853336439    0.7514943603902908 Mg
   0.0019080255259141    0.0004576287288000    0.9986890274131598 Mg
   0.7490468314362542    0.7495553221579918    0.2480226945948865 Mg
   0.0009969487192603    0.4999514782229388    0.5001417748236094 Mg
   0.1207269825309808    0.8749401687217346    0.3763313717514749 Sc
   0.3691167311487800    0.1275691227060095    0.8753398728156415 Sc
   0.3765164164957652    0.3780367444029183    0.6244539739505843 Sc
   0.1208941648048754    0.1235255701239076    0.6281040280880289 Sc
   0.1195251858464466    0.3795115537671971    0.8752707660221519 Sc
   0.3747716282399277    0.6263264116795922    0.3759958836310375 Sc
   0.3752669000583195    0.8748324887495659    0.1248894396195977 Sc
   0.1290522227746625    0.6252143530942477    0.1227987088827705 Sc
   0.6289380202437559    0.8695563665371612    0.8763554820552764 Sc
   0.8756093491887803    0.1279118315993909    0.3712553204878050 Sc
   0.8748436590903843    0.3747275301410428    0.1235858799952252 Sc
   0.6198827671820836    0.1233422836930119    0.1288272582171872 Sc
   0.6232490783978657    0.3757220844197230    0.3735616449586419 Sc
   0.8787328554780597    0.6190052333153062    0.8737681631073199 Sc
   0.8789941554369042    0.8756025739016702    0.6301554960275717 Sc
   0.6235857474639313    0.6275918026430731    0.6270101679602732 Sc
   0.3854880615567814    0.1133704190584686    0.1211617679504127 Se
   0.6172142982751976    0.3759705858635535    0.6151023326191477 Se
   0.6171149163080766    0.1169756861874533    0.8828675616316737 Se
   0.3836893083580067    0.3822885340639963    0.3856612251540777 Se
   0.3669795670784586    0.1379672054783423    0.6383380274206291 Se
   0.1357874161133210    0.8669794181511721    0.1375354487997779 Se
   0.1282374164922356    0.1325162293281797    0.8641623045005783 Se
   0.3676725692343205    0.8697997616040377    0.3635984278774829 Se
   0.3859217044496891    0.6186978244090299    0.6224299050757590 Se
   0.6141962485426233    0.8777947755929640    0.1172212668394630 Se
   0.6162695072798254    0.6175004428692407    0.3818185725228633 Se
   0.3811134083310862    0.8837726190809173    0.8858124446381179 Se
   0.3667244493658398    0.6295391825042010    0.1387700742617708 Se
   0.1324102699575809    0.3669960765663560    0.6328154727069771 Se
   0.1338987056385890    0.6311471048509345    0.3708393386989030 Se
   0.3652286169355359    0.3691735547342219    0.8704266117110955 Se
   0.8797442115267937    0.1134219328950985    0.6209207751741065 Se
   0.1161421723912224    0.3841701183930191    0.1158192866706723 Se
   0.1177217736604385    0.1186262825992560    0.3852130660077599 Se
   0.8821252040317832    0.3803666970041771    0.8834698372137237 Se
   0.8699957040477210    0.1285948001048443    0.1302796023027246 Se
   0.6320868400175623    0.8665029753106627    0.6329537159917044 Se
   0.6342649039755182    0.1310500532421234    0.3661596397747506 Se
   0.8669636579104806    0.8667927752457599    0.8672165237718290 Se
   0.8833038007967531    0.6183730711524033    0.1169152867071478 Se
   0.1172504701422951    0.8817017660361592    0.6191501203858856 Se
   0.1169055062598267    0.6174242694753661    0.8834245698088536 Se
   0.8831148489145384    0.8821042339931827    0.3820316044242263 Se
   0.8712366519612343    0.6321315278814830    0.6342887297688905 Se
   0.6321093746075498    0.3661330523715121    0.1323482521624650 Se
   0.6328776321337104    0.6328075678652811    0.8674116132944630 Se
   0.8637218253593438    0.3683936176363822    0.3678313161709478 Se
